%%MatrixMarket matrix array complex hermitian
%
81 81
1.6070597E-2 0
-1.6844245E-2 -3.301706E-3
-9.090858E-3 6.9962265E-3
-3.7334266E-3 9.933528E-3
-1.9433983E-2 -6.9863545E-3
1.061482E-3 1.327735E-2
-1.1880196E-2 -4.3641715E-3
-5.061676E-3 2.7524617E-3
-1.3774562E-2 -1.2986817E-3
-1.4900421E-2 -4.981788E-3
-6.978584E-3 5.640134E-3
-1.7171785E-2 -5.4672244E-3
5.2243117E-3 -6.9570364E-3
1.0012561E-2 -4.4253604E-3
4.2907777E-3 9.815812E-3
-2.2284884E-2 -6.2827296E-3
-8.031717E-3 -4.566509E-3
1.2452707E-2 6.829617E-3
-1.1501857E-2 -4.8948983E-3
-1.2622881E-2 -3.3021155E-3
7.3139616E-3 8.320423E-3
-1.4799931E-2 -1.2256453E-3
2.2254044E-2 6.164839E-3
-2.7857546E-4 2.2446818E-3
-3.3485412E-3 2.8333436E-3
-4.5990758E-3 4.591366E-3
-2.1855937E-2 -6.2005143E-3
5.726555E-3 -7.462275E-3
-1.3937174E-2 -2.815956E-4
-5.7425285E-3 -9.926117E-3
-2.1860009E-2 -5.6420215E-3
9.305053E-4 -8.772281E-4
1.603329E-2 6.421162E-3
1.2883301E-2 5.0822017E-3
1.4389539E-2 -9.960727E-4
1.27187595E-2 1.8627176E-4
-9.2215405E-4 1.3785814E-2
-1.3517749E-2 -3.495721E-4
-2.3596936E-3 -1.3821338E-2
-3.6337452E-3 -7.7870223E-3
-7.994209E-3 1.0478053E-2
3.92585E-3 -1.770823E-2
4.0335525E-3 4.070324E-3
-2.189106E-2 -6.258709E-3
-4.132254E-3 8.392676E-3
7.7021685E-3 -4.3926793E-3
2.0164065E-2 6.252021E-3
2.129444E-3 -1.6495284E-2
-1.4061944E-2 -5.5468827E-3
-2.6760153E-3 -2.815382E-4
9.853763E-3 -8.157042E-3
-1.8750086E-2 -6.264986E-3
2.837611E-3 6.7560887E-3
-1.16450675E-2 -2.2535892E-3
1.0122112E-2 -1.1372724E-2
3.5268278E-3 -7.709341E-3
1.8919077E-2 5.028085E-3
-1.0702526E-2 9.165518E-3
4.272841E-3 -6.3943006E-3
1.3643928E-3 5.622299E-5
-5.6628655E-3 1.4889141E-3
-2.1525133E-2 -5.746785E-3
1.7072156E-2 4.127102E-3
-1.6910275E-2 -2.0152587E-3
1.5008695E-2 5.8505437E-3
-3.0415633E-3 -2.0984476E-3
-1.3819227E-2 1.7229201E-3
-1.3845349E-2 5.6613963E-3
-5.9689116E-3 2.1106467E-2
1.2054055E-2 4.7365823E-4
-1.1862264E-2 -9.784154E-4
-3.8331368E-3 4.6628695E-3
9.339867E-3 -1.2543259E-2
8.837232E-3 -2.817261E-3
-1.42950425E-2 8.226227E-4
1.1901273E-2 -5.5278447E-3
9.751515E-3 -1.206775E-2
1.4605758E-2 9.972121E-4
1.6249238E-2 3.27296E-3
-1.42380055E-2 1.9584869E-3
-1.1745308E-2 1.8678956E-3
1.8333474E-2 0
8.091123E-3 -9.200746E-3
1.8723122E-3 -1.1178766E-2
2.1804893E-2 3.3299688E-3
-3.8404153E-3 -1.3698449E-2
1.3348735E-2 2.1334782E-3
4.739854E-3 -3.924889E-3
1.4704492E-2 -1.4687841E-3
1.6641246E-2 2.160322E-3
6.1557707E-3 -7.345405E-3
1.9121688E-2 2.2024754E-3
-4.04649E-3 8.365288E-3
-9.5853815E-3 6.695482E-3
-6.5139974E-3 -9.406811E-3
2.464848E-2 2.0067522E-3
9.356558E-3 3.1362264E-3
-1.4455333E-2 -4.5999894E-3
1.3061221E-2 2.7674844E-3
1.3908974E-2 8.677097E-4
-9.375493E-3 -7.2183195E-3
1.5764218E-2 -1.7559986E-3
-2.4591936E-2 -1.889523E-3
-1.6918374E-4 -2.4099755E-3
2.9276316E-3 -3.6577005E-3
3.8771818E-3 -5.757278E-3
2.418199E-2 2.0087075E-3
-4.4691097E-3 8.998035E-3
1.4665972E-2 -2.5682417E-3
8.058299E-3 9.224163E-3
2.4071515E-2 1.4224913E-3
-7.9507375E-4 1.1106308E-3
-1.8124372E-2 -3.4362394E-3
-1.4547651E-2 -2.6799873E-3
-1.4877617E-2 4.000356E-3
-1.3369316E-2 2.417831E-3
-1.8657494E-3 -1.4638929E-2
1.424032E-2 -2.4108212E-3
5.312886E-3 1.4001907E-2
5.40852E-3 7.415341E-3
6.226339E-3 -1.2624884E-2
-4.7668538E-4 1.9367281E-2
-5.063979E-3 -3.4375782E-3
2.4230761E-2 2.0624872E-3
2.6069074E-3 -9.645677E-3
-7.1704793E-3 6.1865565E-3
-2.2419257E-2 -2.410288E-3
1.1570015E-3 1.772687E-2
1.5878502E-2 2.9248856E-3
2.8626823E-3 -2.5469606E-4
-8.652264E-3 1.0574183E-2
2.093987E-2 2.7143802E-3
-4.3622544E-3 -6.498344E-3
1.2668669E-2 -3.040175E-5
-8.2728695E-3 1.3999801E-2
-2.1127264E-3 8.805061E-3
-2.0862874E-2 -1.3832134E-3
9.3346955E-3 -1.18055865E-2
-3.1648278E-3 7.579982E-3
-1.4416265E-3 2.2138502E-4
5.629582E-3 -2.7240275E-3
2.3742042E-2 1.6010992E-3
-1.8741932E-2 -8.1830745E-4
1.8138383E-2 -1.3619437E-3
-1.693322E-2 -3.048654E-3
3.6191125E-3 1.5745788E-3
1.4130519E-2 -4.645024E-3
1.334874E-2 -8.778466E-3
1.9199329E-3 -2.3348859E-2
-1.2731657E-2 1.9800458E-3
1.2634336E-2 -1.4115864E-3
3.0596796E-3 -5.674861E-3
-7.212481E-3 1.50659755E-2
-8.683856E-3 4.768496E-3
1.4814207E-2 -3.799142E-3
-1.1338512E-2 8.2390765E-3
-7.7416394E-3 1.4652149E-2
-1.5513764E-2 1.955536E-3
-1.7703917E-2 -9.21142E-5
1.45210605E-2 -4.977969E-3
1.1926974E-2 -4.370892E-3
8.188301E-3 0
6.4364295E-3 -3.993903E-3
7.952005E-3 1.2412514E-2
5.1797433E-3 -7.972876E-3
4.820509E-3 7.6407003E-3
4.061568E-3 6.4654654E-4
7.2266585E-3 6.731305E-3
6.2601217E-3 9.304909E-3
6.403059E-3 -1.5244698E-4
7.333662E-3 1.0568335E-2
-5.9840023E-3 1.6611059E-3
-7.590484E-3 -1.8555515E-3
1.8460295E-3 -7.4205957E-3
9.871027E-3 1.3255606E-2
2.555404E-3 6.079749E-3
-4.071052E-3 -9.284599E-3
4.3754396E-3 7.776215E-3
5.702991E-3 7.363236E-3
-5.15141E-4 -7.890804E-3
7.838489E-3 7.1363775E-3
-9.904906E-3 -1.3175491E-2
1.1347925E-3 -1.1485015E-3
3.127689E-3 -1.4500841E-4
4.6004383E-3 -5.950795E-4
9.664172E-3 1.3022359E-2
-6.488065E-3 1.7282629E-3
7.761427E-3 6.226749E-3
-1.0728195E-3 8.115004E-3
9.909612E-3 1.2708202E-2
-9.0826605E-4 9.114353E-5
-6.2743453E-3 -1.0612325E-2
-5.075358E-3 -8.483573E-3
-8.573546E-3 -5.7009277E-3
-7.113689E-3 -5.642397E-3
6.523208E-3 -7.3969425E-3
7.4945716E-3 6.082608E-3
-4.682189E-3 8.845768E-3
-1.3344813E-3 5.98691E-3
9.083737E-3 -2.4470277E-3
-9.929945E-3 8.308147E-3
-5.0972257E-4 -4.0584914E-3
9.658706E-3 1.3070568E-2
5.991239E-3 -2.9486422E-3
-6.269307E-3 -8.6822466E-4
-8.684688E-3 -1.2314951E-2
-8.3857E-3 8.4040575E-3
5.5397996E-3 9.259548E-3
1.3912098E-3 1.3242466E-3
-9.125217E-3 3.24528E-4
7.879178E-3 1.1706718E-2
1.3360305E-3 -5.0571375E-3
5.6063277E-3 6.3444185E-3
-1.0676941E-2 2.026759E-3
-5.351275E-3 2.8256597E-3
-8.513252E-3 -1.1080595E-2
1.0044379E-2 -5.255018E-4
-5.200788E-3 1.756993E-3
-7.4733706E-4 -6.2578364E-4
3.8515737E-3 1.6230379E-3
9.6745705E-3 1.2621679E-2
-7.860717E-3 -9.766879E-3
8.68852E-3 8.501772E-3
-5.9431647E-3 -9.843487E-3
8.0701447E-4 2.5111795E-3
8.567358E-3 5.0414815E-3
1.0296725E-2 2.8249265E-3
1.2565068E-2 -9.341037E-3
-6.612566E-3 -5.5155917E-3
6.2843305E-3 5.7176296E-3
4.198288E-3 -9.689742E-4
-1.0744024E-2 3.0294557E-3
-6.2255454E-3 -2.2535538E-3
8.444581E-3 5.757908E-3
-9.138854E-3 -2.0541335E-3
-1.0769877E-2 2.5812602E-3
-7.828094E-3 -6.922624E-3
-7.7670515E-3 -8.925453E-3
8.906807E-3 5.090538E-3
7.457292E-3 4.0566046E-3
7.007422E-3 0
1.9639608E-4 1.3635526E-2
7.9603745E-3 -3.7406373E-3
6.236358E-5 8.357225E-3
2.8772454E-3 2.4892779E-3
2.3972865E-3 8.81601E-3
3.822442E-4 1.036756E-2
5.1074936E-3 3.0033065E-3
6.0985744E-4 1.1884306E-2
-5.513953E-3 -1.6130245E-3
-5.061455E-3 -5.1608724E-3
5.070524E-3 -4.9325596E-3
1.2936238E-3 1.5234259E-2
-9.567611E-4 6.025415E-3
1.3285711E-3 -9.283861E-3
-3.53582E-4 8.24666E-3
8.9137594E-4 8.569561E-3
3.4438686E-3 -6.453845E-3
2.6806395E-3 9.432841E-3
-1.3593305E-3 -1.518781E-2
1.4521955E-3 -3.4927865E-4
2.5292544E-3 1.4115686E-3
3.906437E-3 1.7761331E-3
1.2447919E-3 1.4950019E-2
-5.942928E-3 -1.8060957E-3
3.0637432E-3 8.68024E-3
-4.801443E-3 5.8555384E-3
1.5909526E-3 1.48227895E-2
-7.584001E-4 -3.7136974E-4
2.4427715E-4 -1.1402195E-2
1.4842856E-4 -9.144071E-3
-3.958584E-3 -8.663034E-3
-2.8396095E-3 -7.90497E-3
8.735492E-3 -2.6326391E-3
2.9242863E-3 8.436777E-3
-7.995031E-3 4.6694614E-3
-3.9691296E-3 4.055119E-3
8.333843E-3 2.5071667E-3
-1.1857809E-2 1.687233E-3
1.57889E-3 -3.4388062E-3
1.216981E-3 1.4985249E-2
6.147647E-3 6.044842E-4
-4.5045177E-3 -3.740369E-3
-8.199095E-4 -1.391621E-2
-1.0690736E-2 2.5158396E-3
-1.6184036E-4 9.980562E-3
4.4765236E-4 1.7194991E-3
-7.331184E-3 -4.195794E-3
4.8340744E-4 1.3045213E-2
3.5168442E-3 -3.3235138E-3
1.3123293E-3 7.7215694E-3
-9.381197E-3 -3.614617E-3
-5.5846157E-3 -3.8900774E-4
-1.2872188E-3 -1.2862322E-2
8.15172E-3 4.4861464E-3
-4.9450747E-3 -1.1556338E-3
-2.8221525E-4 -8.5641746E-4
2.2358885E-3 3.1544245E-3
1.4483994E-3 1.4640136E-2
-1.4150661E-3 -1.1511394E-2
2.6828279E-3 1.0920723E-2
1.2959493E-4 -1.0636312E-2
-5.904906E-4 2.3675445E-3
4.2753704E-3 8.141656E-3
6.715882E-3 7.2428402E-3
1.4432954E-2 -1.2138371E-3
-2.5075504E-3 -7.560868E-3
2.1509952E-3 7.5595807E-3
3.7726962E-3 1.2860809E-3
-9.923E-3 -2.8591657E-3
-3.7944145E-3 -4.807965E-3
3.8294184E-3 8.64492E-3
-6.1816955E-3 -6.0721966E-3
-9.72471E-3 -3.2240804E-3
-2.776729E-3 -9.259751E-3
-1.7518512E-3 -1.0804304E-2
4.5182663E-3 8.345786E-3
3.8831814E-3 6.8260496E-3
2.6538456E-2 0
-7.0556873E-3 -1.5594685E-2
1.6263813E-2 1.12874426E-4
4.924449E-3 -5.5289767E-3
1.7221991E-2 -4.4177207E-3
2.018463E-2 -4.5322764E-4
5.9871883E-3 -9.854341E-3
2.3142396E-2 -8.53623E-4
-3.2932735E-3 1.0684222E-2
-1.018424E-2 9.704287E-3
-9.456004E-3 -1.0004821E-2
2.9680133E-2 -2.090254E-3
1.1697854E-2 2.0306052E-3
-1.8027944E-2 -2.845423E-3
1.6037013E-2 9.191517E-4
1.6700225E-2 -1.494323E-3
-1.2461818E-2 -6.8821986E-3
1.8430205E-2 -4.9518007E-3
-2.9591586E-2 2.2194118E-3
-6.3895015E-4 -2.8355715E-3
2.8176152E-3 -4.8820367E-3
3.565608E-3 -7.5516365E-3
2.912567E-2 -2.0032004E-3
-3.6809875E-3 1.15135405E-2
1.6976478E-2 -5.718364E-3
1.1259543E-2 9.507092E-3
2.88878E-2 -2.6803496E-3
-7.438925E-4 1.4653392E-3
-2.2180334E-2 -7.9489825E-4
-1.7789004E-2 -5.4510223E-4
-1.6968077E-2 7.460089E-3
-1.5461623E-2 5.3039575E-3
-4.877943E-3 -1.707191E-2
1.649882E-2 -5.4538227E-3
8.862086E-3 1.5688155E-2
7.7794893E-3 7.83706E-3
5.1121893E-3 -1.61463E-2
2.9507978E-3 2.3121035E-2
-6.6472157E-3 -3.1686926E-3
2.9193442E-2 -1.9480961E-3
1.348546E-3 -1.1945574E-2
-7.4045155E-3 8.660371E-3
-2.7102103E-2 1.2054093E-3
4.5958674E-3 2.0873282E-2
1.9416334E-2 5.9464446E-4
3.3584668E-3 -8.228809E-4
-8.369936E-3 1.4147931E-2
2.5397828E-2 -5.750318E-4
-6.3685575E-3 -6.9364663E-3
1.5061945E-2 -2.33721E-3
-7.296498E-3 1.8153276E-2
-9.134771E-4 1.085603E-2
-2.5064474E-2 2.1442682E-3
8.9579215E-3 -1.573645E-2
-2.3873071E-3 9.590081E-3
-1.674386E-3 5.251513E-4
6.2007625E-3 -4.2623384E-3
2.8528383E-2 -2.4080798E-3
-2.2439329E-2 2.4309056E-3
2.1325488E-2 -4.914359E-3
-2.069324E-2 -5.5027683E-4
4.590383E-3 1.2153722E-3
1.5962426E-2 -8.091126E-3
1.4281845E-2 -1.2865234E-2
-1.9574587E-3 -2.8118657E-2
-1.4782739E-2 4.6674577E-3
1.4770241E-2 -3.9736833E-3
2.6082823E-3 -7.305129E-3
-5.8416724E-3 1.9228727E-2
-9.462016E-3 7.248682E-3
1.692921E-2 -7.209258E-3
-1.1988955E-2 1.1858585E-2
-6.546192E-3 1.8832654E-2
-1.8096088E-2 5.143629E-3
-2.1072863E-2 3.1060632E-3
1.636644E-2 -8.558049E-3
1.3391432E-2 -7.364849E-3
1.10397125E-2 0
-4.3903324E-3 9.5270295E-3
1.939724E-3 4.363704E-3
-1.9827832E-3 1.1294613E-2
-5.100089E-3 1.1981511E-2
4.1988734E-3 6.138167E-3
-5.651178E-3 1.3826024E-2
-5.4027555E-3 -4.77579E-3
-2.9948426E-3 -8.564569E-3
8.3931275E-3 -2.8966465E-3
-6.662665E-3 1.7996544E-2
-4.303304E-3 6.334093E-3
6.4650713E-3 -9.837185E-3
-4.8038233E-3 9.179394E-3
-3.5619282E-3 1.0210776E-2
7.357338E-3 -5.4931412E-3
-1.9901686E-3 1.2146585E-2
6.563228E-3 -1.7978853E-2
1.836131E-3 3.784199E-4
2.119702E-3 2.9536737E-3
3.489562E-3 4.1029714E-3
-6.566408E-3 1.7647583E-2
-5.7870043E-3 -5.224109E-3
-1.1532186E-3 1.1496141E-2
-8.580151E-3 4.088782E-3
-6.1052563E-3 1.7687835E-2
-6.632952E-4 -8.2671526E-4
6.3641113E-3 -1.2822403E-2
5.049817E-3 -1.0308357E-2
1.2750202E-4 -1.1954271E-2
9.939848E-4 -1.0495796E-2
1.1328779E-2 1.6724436E-3
-1.1816763E-3 1.1145124E-2
-1.1574899E-2 1.0366369E-3
-6.6735656E-3 2.4878182E-3
8.128826E-3 7.296816E-3
-1.43710375E-2 -4.4131437E-3
3.6292782E-3 -3.063627E-3
-6.6168075E-3 1.7672759E-2
6.6609965E-3 3.968369E-3
-3.1204459E-3 -6.6535887E-3
6.4972118E-3 -1.6246377E-2
-1.348757E-2 -2.8488566E-3
-5.5115814E-3 1.1251444E-2
-4.0935772E-4 2.1922984E-3
-6.088406E-3 -8.679853E-3
-6.414529E-3 1.5077305E-2
5.7692337E-3 -1.898155E-3
-2.6310615E-3 9.472175E-3
-8.727441E-3 -9.113959E-3
-6.1364216E-3 -3.423038E-3
5.4037767E-3 -1.5298623E-2
6.865535E-3 9.447702E-3
-5.000675E-3 -3.9525246E-3
1.365706E-4 -1.1235328E-3
8.560852E-4 4.776942E-3
-6.1696926E-3 1.7404247E-2
4.5374036E-3 -1.3832227E-2
-2.7819285E-3 1.3837974E-2
5.824997E-3 -1.2013584E-2
-1.9346135E-3 2.374301E-3
5.106807E-4 1.1531095E-2
3.7628808E-3 1.1812817E-2
1.7043676E-2 6.3255564E-3
1.1875165E-3 -9.927641E-3
-1.591873E-3 9.735847E-3
3.599228E-3 3.4748835E-3
-9.746193E-3 -8.544993E-3
-1.7438802E-3 -7.487308E-3
-2.6456316E-4 1.1864743E-2
-3.780951E-3 -1.0197822E-2
-9.326142E-3 -8.853684E-3
1.7886136E-3 -1.2001249E-2
3.7773657E-3 -1.3208759E-2
6.776431E-4 1.1892645E-2
7.6744327E-4 9.827221E-3
9.967586E-3 0
2.994381E-3 -3.4093205E-3
1.0535525E-2 -2.7806035E-3
1.2368011E-2 -3.636062E-4
3.6272726E-3 -6.0645943E-3
1.4178944E-2 -6.215641E-4
-1.9728052E-3 6.5617203E-3
-6.200029E-3 5.9904866E-3
-5.8375658E-3 -6.09113E-3
1.8180264E-2 -1.4072283E-3
7.1775434E-3 1.1946812E-3
-1.1060338E-2 -1.6671097E-3
9.832025E-3 4.950832E-4
1.0228202E-2 -9.868108E-4
-7.6663652E-3 -4.1646794E-3
1.1273696E-2 -3.1130472E-3
-1.8125454E-2 1.4860035E-3
-4.0363433E-4 -1.7350327E-3
1.7059811E-3 -3.003889E-3
2.1530262E-3 -4.6431064E-3
1.784084E-2 -1.3515195E-3
-2.206884E-3 7.0716087E-3
1.0379535E-2 -3.5766445E-3
6.940728E-3 5.7784314E-3
1.7692182E-2 -1.7654914E-3
-4.496542E-4 9.0118166E-4
-1.3596364E-2 -3.928068E-4
-1.0904123E-2 -2.583987E-4
-1.0366978E-2 4.6440065E-3
-9.452933E-3 3.316237E-3
-3.062007E-3 -1.0441592E-2
1.0087932E-2 -3.4124916E-3
5.4977615E-3 9.576627E-3
4.8009115E-3 4.769772E-3
3.064277E-3 -9.916834E-3
1.9067051E-3 1.4156931E-2
-4.0871534E-3 -1.9136276E-3
1.7882608E-2 -1.3180375E-3
7.756349E-4 -7.326455E-3
-4.5009446E-3 5.3389105E-3
-1.6604112E-2 8.539951E-4
2.9053078E-3 1.2772423E-2
1.19016245E-2 2.8183925E-4
2.0547009E-3 -5.185783E-4
-5.0692526E-3 8.706009E-3
1.5562345E-2 -4.6042592E-4
-3.9324057E-3 -4.2238533E-3
9.220612E-3 -1.4963965E-3
-4.394371E-3 1.1156077E-2
-5.1364134E-4 6.6568884E-3
-1.5351377E-2 1.4206982E-3
5.4228366E-3 -9.682017E-3
-1.4222472E-3 5.8873333E-3
-1.0238962E-3 3.2895507E-4
3.7819433E-3 -2.6385025E-3
1.7473077E-2 -1.597105E-3
-1.3741367E-2 1.5851946E-3
1.3048198E-2 -3.1024157E-3
-1.26839755E-2 -2.4921822E-4
2.818337E-3 7.25304E-4
9.74799E-3 -5.0264536E-3
8.697759E-3 -7.945067E-3
-1.3192039E-3 -1.7223898E-2
-9.039595E-3 2.923277E-3
9.034886E-3 -2.4980519E-3
1.5673876E-3 -4.487965E-3
-3.4982227E-3 1.1808968E-2
-5.767866E-3 4.4825226E-3
1.0344225E-2 -4.4901217E-3
-7.2968663E-3 7.3184012E-3
-3.931665E-3 1.15692355E-2
-1.1068119E-2 3.2291864E-3
-1.2901071E-2 1.9931463E-3
9.993601E-3 -5.314321E-3
8.175474E-3 -4.570428E-3
2.0656737E-3 0
4.116076E-3 2.768252E-3
3.8398644E-3 4.121131E-3
3.1640134E-3 -5.8120105E-4
4.4721225E-3 4.66305E-3
-2.8370293E-3 1.2964387E-3
-3.911552E-3 -3.210492E-4
3.2974043E-4 -3.8265323E-3
5.942896E-3 5.7956423E-3
1.7475894E-3 2.813908E-3
-2.7524368E-3 -4.283905E-3
2.7843176E-3 3.5116812E-3
3.410202E-3 3.2020116E-3
-8.7857695E-4 -3.8733275E-3
4.4515403E-3 2.9208665E-3
-5.9533743E-3 -5.7532294E-3
4.7219524E-4 -6.592836E-4
1.5399492E-3 -3.1888884E-4
2.2349257E-3 -6.584215E-4
5.821874E-3 5.6962804E-3
-3.0817518E-3 1.3695506E-3
4.3414924E-3 2.4757567E-3
1.0861815E-4 4.1099205E-3
5.918811E-3 5.5210716E-3
-4.433222E-4 1.1692559E-4
-3.950153E-3 -4.7685136E-3
-3.1873446E-3 -3.8072795E-3
-4.702802E-3 -2.1508138E-3
-3.974061E-3 -2.237051E-3
2.6515862E-3 -4.1841087E-3
4.197745E-3 2.4253305E-3
-1.6240034E-3 4.7573904E-3
-1.8920534E-4 3.0750025E-3
4.3125055E-3 -1.9310267E-3
-4.2694495E-3 4.9050804E-3
-5.732907E-4 -1.972849E-3
5.8229696E-3 5.720625E-3
2.7389554E-3 -1.9356551E-3
-3.1782617E-3 6.436561E-5
-5.280172E-3 -5.4227314E-3
-3.4958995E-3 4.830721E-3
3.478988E-3 4.1555073E-3
7.946313E-4 5.470042E-4
-4.5006727E-3 8.814978E-4
4.832597E-3 5.184638E-3
2.633885E-4 -2.6139382E-3
3.2818096E-3 2.7042893E-3
-5.1359534E-3 1.8483638E-3
-2.4312306E-3 1.8241217E-3
-5.0976714E-3 -4.824001E-3
4.9407277E-3 -1.0537619E-3
-2.4409674E-3 1.2821582E-3
-4.2010652E-4 -2.5139216E-4
2.0386155E-3 5.0094107E-4
5.795393E-3 5.4967143E-3
-4.6702703E-3 -4.223895E-3
4.9809855E-3 3.5310122E-3
-3.7251732E-3 -4.413303E-3
5.9857825E-4 1.1818757E-3
4.6476633E-3 1.8242032E-3
5.3304457E-3 5.881952E-4
5.4949694E-3 -5.625484E-3
-3.7154807E-3 -2.2137216E-3
3.568622E-3 2.3398541E-3
2.0059284E-3 -8.121273E-4
-5.090055E-3 2.351019E-3
-3.2659404E-3 -6.26242E-4
4.6433317E-3 2.18926E-3
-4.6952562E-3 -2.9729103E-4
-5.1382678E-3 2.130746E-3
-4.4295066E-3 -2.815661E-3
-4.5573716E-3 -3.8139261E-3
4.81991E-3 1.8217333E-3
4.0192814E-3 1.4233341E-3
1.1911515E-2 0
1.3174155E-2 3.0659123E-3
5.525756E-3 -5.3982656E-3
1.5160235E-2 3.2984423E-3
-3.9157E-3 6.3852547E-3
-8.224431E-3 4.6022274E-3
-4.4709723E-3 -8.066667E-3
1.9608717E-2 3.5842399E-3
7.253236E-3 3.265032E-3
-1.1225476E-2 -4.847542E-3
1.0254129E-2 3.2660784E-3
1.1086275E-2 1.810268E-3
-6.941385E-3 -6.5406207E-3
1.2784486E-2 -1.454626E-4
-1.9572757E-2 -3.4856843E-3
5.7379777E-5 -1.9464921E-3
2.6411638E-3 -2.699138E-3
3.5709643E-3 -4.307046E-3
1.9234411E-2 3.5484345E-3
-4.3053576E-3 6.8588965E-3
1.1968703E-2 -8.849145E-4
5.724224E-3 8.0438955E-3
1.9192768E-2 3.0694054E-3
-7.266726E-4 8.270921E-4
-1.4261488E-2 -4.2080926E-3
-1.145334E-2 -3.314986E-3
-1.2253187E-2 2.0165958E-3
-1.091666E-2 8.681576E-4
-3.2364178E-4 -1.1890732E-2
1.1614693E-2 -7.927553E-4
3.139477E-3 1.165597E-2
3.743863E-3 6.38083E-3
6.00532E-3 -9.627056E-3
-1.9339361E-3 1.5495476E-2
-3.786199E-3 -3.162834E-3
1.926922E-2 3.5954763E-3
2.8636507E-3 -7.527531E-3
-6.2467684E-3 4.3875095E-3
-1.7788425E-2 -3.729304E-3
-4.9220526E-4 1.4310657E-2
1.2501138E-2 3.6180287E-3
2.3164398E-3 2.5062562E-5
-7.7867587E-3 7.7879243E-3
1.6577508E-2 3.854683E-3
-2.978163E-3 -5.561524E-3
1.0163432E-2 9.905654E-4
-7.756906E-3 1.056586E-2
-2.3999435E-3 6.8929004E-3
-1.6622402E-2 -2.7808426E-3
8.432762E-3 -8.720906E-3
-3.1456419E-3 5.8260285E-3
-1.1740031E-3 6.206772E-5
4.7334814E-3 -1.7338124E-3
1.8914202E-2 3.186264E-3
-1.4966543E-2 -2.1578372E-3
1.46571295E-2 3.6079797E-4
-1.3337167E-2 -3.8017975E-3
2.7765876E-3 1.5528469E-3
1.1705619E-2 -2.5935094E-3
1.1409737E-2 -5.9713996E-3
3.4104867E-3 -1.8573303E-2
-1.0370147E-2 5.681151E-4
1.0246548E-2 -1.1997463E-4
2.9086783E-3 -4.306437E-3
-6.9918297E-3 1.1505946E-2
-7.3469756E-3 3.1289002E-3
1.2186209E-2 -1.8602905E-3
-9.754207E-3 5.6998264E-3
-7.383092E-3 1.1131639E-2
-1.2599593E-2 3.2556787E-4
-1.4192173E-2 -1.4922281E-3
1.204553E-2 -2.8292628E-3
9.916288E-3 -2.550177E-3
1.5359774E-2 0
4.722032E-3 -7.3927687E-3
1.7616233E-2 -2.5402027E-4
-2.6872659E-3 8.069968E-3
-7.911664E-3 7.206963E-3
-7.021188E-3 -7.7709616E-3
2.2609822E-2 -1.0829248E-3
8.86248E-3 1.7442162E-3
-1.3663107E-2 -2.472057E-3
1.218174E-2 9.7297126E-4
1.2727384E-2 -8.51344E-4
-9.3606785E-3 -5.4472904E-3
1.41022215E-2 -3.451489E-3
-2.2544686E-2 1.1826715E-3
-4.375466E-4 -2.1675925E-3
2.2263988E-3 -3.665062E-3
2.8408994E-3 -5.6827324E-3
2.2186628E-2 -1.0261837E-3
-2.996317E-3 8.69411E-3
1.3009636E-2 -4.059349E-3
8.401425E-3 7.4232006E-3
2.201727E-2 -1.5452722E-3
-5.908153E-4 1.101804E-3
-1.6856352E-2 -9.833827E-4
-1.3520659E-2 -7.1839744E-4
-1.3032991E-2 5.384214E-3
-1.185039E-2 3.7700303E-3
-3.418511E-3 -1.3067865E-2
1.2641822E-2 -3.8663016E-3
6.4724046E-3 1.208345E-2
5.783085E-3 6.0935738E-3
4.1639805E-3 -1.2193253E-2
1.849454E-3 1.7635802E-2
-5.0016264E-3 -2.5235678E-3
2.223723E-2 -9.831133E-4
1.2296861E-3 -9.06254E-3
-5.7796333E-3 6.4604534E-3
-2.0633914E-2 4.539566E-4
3.1390497E-3 1.5954299E-2
1.4757527E-2 7.838705E-4
2.5684373E-3 -5.685106E-4
-6.60763E-3 1.0617696E-2
1.932691E-2 -3.6095064E-6
-4.725338E-3 -5.3845034E-3
1.1495734E-2 -1.520406E-3
-5.859597E-3 1.3682415E-2
-8.801736E-4 8.241283E-3
-1.9100167E-2 1.2028342E-3
7.0819682E-3 -1.1815851E-2
-1.9795198E-3 7.2532566E-3
-1.2824738E-3 3.7082442E-4
4.7889715E-3 -3.1359533E-3
2.1739254E-2 -1.3443268E-3
-1.710843E-2 1.4656775E-3
1.6303677E-2 -3.3735652E-3
-1.5729478E-2 -7.719319E-4
3.4705992E-3 1.0027834E-3
1.227889E-2 -5.8813435E-3
1.1082206E-2 -9.541138E-3
-1.0085901E-3 -2.1419931E-2
-1.13231735E-2 3.2975152E-3
1.1301819E-2 -2.770058E-3
2.1085665E-3 -5.5115935E-3
-4.7714524E-3 1.4525228E-2
-7.3204176E-3 5.351612E-3
1.2999146E-2 -5.194101E-3
-9.321087E-3 8.814658E-3
-5.300532E-3 1.421195E-2
-1.38513725E-2 3.603096E-3
-1.6080653E-2 2.0025254E-3
1.259415E-2 -6.229576E-3
1.0311039E-2 -5.3728595E-3
5.0098794E-3 0
5.537993E-3 8.400725E-3
-4.7102743E-3 1.1875377E-3
-5.9010335E-3 -1.5923146E-3
1.5817056E-3 -5.7683624E-3
7.4721235E-3 1.0549347E-2
1.8850751E-3 4.8017963E-3
-3.0106097E-3 -7.336131E-3
3.276716E-3 6.1622774E-3
4.3225186E-3 5.864053E-3
-2.5592002E-4 -6.1800135E-3
5.9966506E-3 5.7264133E-3
-7.500107E-3 -1.048733E-2
9.087633E-4 -8.7697397E-4
2.448479E-3 -5.5162887E-5
3.6085134E-3 -3.7968886E-4
7.3147095E-3 1.0363102E-2
-5.1056896E-3 1.2306683E-3
5.953326E-3 5.013671E-3
-9.900018E-4 6.3257683E-3
7.512486E-3 1.0122009E-2
-7.119396E-4 5.4362306E-5
-4.7088135E-3 -8.415402E-3
-3.8108663E-3 -6.7284456E-3
-6.5981736E-3 -4.617611E-3
-5.4576895E-3 -4.544662E-3
5.238709E-3 -5.6627877E-3
5.7473346E-3 4.895987E-3
-3.826049E-3 6.830011E-3
-1.1549952E-3 4.6567773E-3
7.1488256E-3 -1.7444002E-3
-7.919661E-3 6.3119023E-3
-3.2303145E-4 -3.183135E-3
7.3095383E-3 1.0400699E-2
4.739905E-3 -2.194226E-3
-4.8862854E-3 -7.9565105E-4
-6.5619457E-3 -9.79169E-3
-6.7138844E-3 6.4156526E-3
4.159602E-3 7.3438864E-3
1.0632391E-3 1.0614308E-3
-7.1417456E-3 8.388311E-5
5.9433803E-3 9.301069E-3
1.1388964E-3 -3.9296886E-3
4.265899E-3 5.0655627E-3
-8.386851E-3 1.3860983E-3
-4.2371782E-3 2.1099711E-3
-6.4508677E-3 -8.823261E-3
7.864252E-3 -2.2392716E-4
-4.099604E-3 1.2771006E-3
-5.7274936E-4 -5.0326175E-4
2.981623E-3 1.3408846E-3
7.3303E-3 1.0049973E-2
-5.9650587E-3 -7.783817E-3
6.635935E-3 6.809945E-3
-4.4641527E-3 -7.808022E-3
5.8431405E-4 1.9787082E-3
6.6056126E-3 4.101824E-3
7.999202E-3 2.400727E-3
9.999496E-3 -7.070538E-3
-5.0681834E-3 -4.4361735E-3
4.8077498E-3 4.5880512E-3
3.3010023E-3 -6.7955273E-4
-8.457975E-3 2.1689348E-3
-4.826274E-3 -1.8781313E-3
6.4962646E-3 4.659767E-3
-7.1081254E-3 -1.776428E-3
-8.469847E-3 1.8179747E-3
-5.992502E-3 -5.559069E-3
-5.90748E-3 -7.1240985E-3
6.87014E-3 4.1465047E-3
5.755903E-3 3.3110064E-3
2.0208381E-2 0
-3.215505E-3 9.21106E-3
-9.193132E-3 8.134873E-3
-7.924134E-3 -9.028686E-3
2.5949273E-2 -8.680934E-4
1.0135594E-2 2.1470215E-3
-1.562943E-2 -3.0611795E-3
1.3955233E-2 1.3173693E-3
1.4611206E-2 -7.6592714E-4
-1.0645741E-2 -6.402341E-3
1.6231015E-2 -3.725315E-3
-2.5876218E-2 9.835713E-4
-4.6597773E-4 -2.493263E-3
2.6140849E-3 -4.166665E-3
3.3522286E-3 -6.4705834E-3
2.5462966E-2 -8.100147E-4
-3.58028E-3 9.921782E-3
1.4987975E-2 -4.440542E-3
9.512887E-3 8.652662E-3
2.5277317E-2 -1.4081604E-3
-6.958319E-4 1.2538958E-3
-1.9316405E-2 -1.4066196E-3
-1.5495057E-2 -1.0475394E-3
-1.5036674E-2 5.959653E-3
-1.36536425E-2 4.127892E-3
-3.7045982E-3 -1.5044162E-2
1.4562935E-2 -4.225218E-3
7.22341E-3 1.3965635E-2
6.531885E-3 7.0844027E-3
4.97735E-3 -1.3915664E-2
1.829491E-3 2.0257208E-2
-5.694666E-3 -2.9770143E-3
2.5520295E-2 -7.597809E-4
1.5602116E-3 -1.0373552E-2
-6.735544E-3 7.313955E-3
-2.3672689E-2 1.7940359E-4
3.3363458E-3 1.835001E-2
1.6912546E-2 1.1430867E-3
2.9551606E-3 -6.0955196E-4
-7.7539315E-3 1.20682325E-2
2.2166228E-2 3.1548704E-4
-5.330474E-3 -6.2536723E-3
1.3209684E-2 -1.5536478E-3
-6.9466927E-3 1.5595551E-2
-1.1457716E-3 9.437429E-3
-2.1926006E-2 1.0636608E-3
8.3177695E-3 -1.3434561E-2
-2.3902794E-3 8.286073E-3
-1.4770108E-3 4.0409158E-4
5.544367E-3 -3.5174468E-3
2.4955137E-2 -1.1822933E-3
-1.9646015E-2 1.3980559E-3
1.875459E-2 -3.5995352E-3
-1.8027479E-2 -1.1454688E-3
3.96387E-3 1.2074963E-3
1.418001E-2 -6.542285E-3
1.2868051E-2 -1.075952E-2
-8.0251665E-4 -2.4583347E-2
-1.3041161E-2 3.5946807E-3
1.3007947E-2 -2.9900894E-3
2.5094806E-3 -6.2864134E-3
-5.7126307E-3 1.6580174E-2
-8.484344E-3 6.016736E-3
1.4994711E-2 -5.7421704E-3
-1.0836195E-2 9.955442E-3
-6.314254E-3 1.6212124E-2
-1.5945822E-2 3.903342E-3
-1.847613E-2 2.0307684E-3
1.4547342E-2 -6.936462E-3
1.1914659E-2 -5.991646E-3
4.7100806E-3 0
5.170694E-3 2.8958658E-3
-2.8544432E-3 5.048472E-3
-4.5246617E-3 -1.1689653E-2
-6.3412864E-4 -4.9614725E-3
1.0916166E-3 7.6110424E-3
-1.6200582E-3 -6.5704663E-3
-2.67401E-3 -6.537973E-3
-1.22429E-3 5.8710948E-3
-4.2806496E-3 -6.805399E-3
4.5656716E-3 1.1637978E-2
-1.0622939E-3 6.09116E-4
-2.3151287E-3 -5.2852137E-4
-3.4827152E-3 -4.983766E-4
-4.420808E-3 -1.1477234E-2
5.0920723E-3 5.3177533E-5
-4.4088643E-3 -6.125011E-3
2.4302518E-3 -5.7128007E-3
-4.663906E-3 -1.1297437E-2
6.822496E-4 1.17646276E-4
2.4324334E-3 9.028311E-3
1.9880605E-3 7.2293906E-3
5.10903E-3 5.905491E-3
4.054042E-3 5.566565E-3
-6.267722E-3 4.0823584E-3
-4.2430875E-3 -5.9655374E-3
5.2162213E-3 -5.514634E-3
2.189762E-3 -4.104511E-3
-7.1347975E-3 -5.4471446E-5
8.942211E-3 -4.0571634E-3
-4.508144E-4 3.0693458E-3
-4.4070343E-3 -1.1511356E-2
-4.976563E-3 9.3946216E-4
4.4054724E-3 1.90631E-3
3.8485094E-3 1.0761558E-2
7.833136E-3 -4.4405255E-3
-2.1700575E-3 -7.89069E-3
-7.4805366E-4 -1.2499834E-3
6.7345337E-3 1.6140069E-3
-3.3832318E-3 -1.0153654E-2
-2.0022774E-3 3.4247192E-3
-2.8100493E-3 -5.773813E-3
8.213853E-3 6.8480655E-4
4.483929E-3 -9.79412E-4
3.9736303E-3 9.824714E-3
-7.4470276E-3 -1.6536001E-3
4.15716E-3 -2.2895962E-4
4.1920468E-4 6.089293E-4
-2.4854715E-3 -1.9674574E-3
-4.5096907E-3 -1.1186526E-2
3.7632624E-3 8.732276E-3
-4.624864E-3 -7.975669E-3
2.3463767E-3 8.39926E-3
-8.033913E-5 -1.998881E-3
-5.2382858E-3 -5.4223128E-3
-6.9517624E-3 -4.1532815E-3
-1.1077493E-2 4.277429E-3
3.7135452E-3 5.3722356E-3
-3.432685E-3 -5.453298E-3
-3.264674E-3 -1.4355333E-4
8.4662875E-3 -3.4354765E-5
4.092459E-3 2.9098298E-3
-5.0032237E-3 -5.920969E-3
6.261957E-3 3.3550968E-3
8.394259E-3 2.9843085E-4
4.3164166E-3 6.64708E-3
3.8655065E-3 8.098362E-3
-5.476403E-3 -5.527024E-3
-4.626846E-3 -4.4773733E-3
7.4567986E-3 0
-2.9671508E-5 7.297157E-3
-1.2154211E-2 -1.0050956E-2
-3.7465696E-3 -5.0567943E-3
5.877814E-3 7.6842005E-3
-5.8181635E-3 -6.2169647E-3
-6.9552064E-3 -5.5333E-3
2.2656666E-3 7.19797E-3
-8.883385E-3 -4.8390795E-3
1.2167461E-2 9.969014E-3
-7.9168065E-4 1.3218062E-3
-2.86648E-3 8.4318727E-4
-4.129715E-3 1.594139E-3
-1.1909601E-2 -9.881615E-3
5.6227376E-3 -3.0723452E-3
-8.605819E-3 -4.0133246E-3
-8.444472E-4 -7.7656494E-3
-1.206593E-2 -9.534775E-3
8.2130067E-4 -2.903115E-4
8.221122E-3 8.415703E-3
6.6272756E-3 6.7140707E-3
9.23949E-3 3.3418587E-3
7.872952E-3 3.6184192E-3
-4.3707355E-3 8.335126E-3
-8.325783E-3 -3.9401785E-3
2.3358082E-3 -9.260981E-3
-1.1964165E-4 -5.85222E-3
-7.866023E-3 4.326839E-3
7.322262E-3 -9.951806E-3
1.3922036E-3 3.6466783E-3
-1.1915459E-2 -9.927544E-3
-4.8856344E-3 4.0910407E-3
6.008341E-3 -6.1585126E-4
1.0841321E-2 9.447814E-3
5.869027E-3 -9.690773E-3
-7.233653E-3 -7.328145E-3
-1.589727E-3 -9.123029E-4
8.385454E-3 -2.3687002E-3
-9.95679E-3 -9.066524E-3
-9.249041E-5 4.99068E-3
-6.634726E-3 -4.6107704E-3
9.438148E-3 -4.2982902E-3
4.320263E-3 -3.8320147E-3
1.0402684E-2 8.342425E-3
-9.1919685E-3 2.763293E-3
4.4229324E-3 -2.807268E-3
8.3458377E-4 4.1074186E-4
-3.938172E-3 -6.317364E-4
-1.1828441E-2 -9.507831E-3
9.500088E-3 7.272494E-3
-9.98077E-3 -5.9121624E-3
7.739895E-3 7.7780453E-3
-1.317154E-3 -2.1449642E-3
-9.084318E-3 -2.7319598E-3
-1.0185132E-2 -2.8534065E-4
-9.530936E-3 1.150643E-2
7.3796795E-3 3.6144317E-3
-7.1211923E-3 -3.8761003E-3
-3.672197E-3 1.8496049E-3
9.273111E-3 -5.242983E-3
6.2817037E-3 6.7825377E-4
-9.132854E-3 -3.423903E-3
8.937126E-3 -1.6679257E-4
9.398642E-3 -4.833368E-3
8.825311E-3 4.6432866E-3
9.222587E-3 6.5137255E-3
-9.410101E-3 -2.7005118E-3
-7.832113E-3 -2.0705392E-3
7.14105E-3 0
-9.787413E-3 1.1933996E-2
-4.933625E-3 3.6864812E-3
7.4963006E-3 -5.782552E-3
-6.0607153E-3 5.71834E-3
-5.387163E-3 6.82832E-3
7.034853E-3 -2.245803E-3
-4.7001312E-3 8.712457E-3
9.707172E-3 -1.1946636E-2
1.2966581E-3 7.69472E-4
8.3654164E-4 2.8017566E-3
1.5764429E-3 4.034959E-3
-9.622669E-3 1.169395E-2
-3.0289432E-3 -5.490135E-3
-3.8931598E-3 8.437548E-3
-7.5960346E-3 8.57269E-4
-9.282633E-3 1.1845551E-2
-2.873643E-4 -8.0256234E-4
8.202819E-3 -8.078604E-3
6.5439586E-3 -6.5121087E-3
3.233548E-3 -9.054979E-3
3.5096253E-3 -7.7187987E-3
8.174071E-3 4.243996E-3
-3.8226943E-3 8.163215E-3
-9.072009E-3 -2.2489505E-3
-5.7264543E-3 1.4036693E-4
4.2655063E-3 7.680402E-3
-9.767883E-3 -7.1259006E-3
3.563067E-3 -1.3769084E-3
-9.667592E-3 1.1699865E-2
4.0228968E-3 4.7647594E-3
-6.2657456E-4 -5.8772583E-3
9.202408E-3 -1.06468145E-2
-9.506657E-3 -5.7048164E-3
-7.142475E-3 7.1079475E-3
-8.864457E-4 1.5593227E-3
-2.3513557E-3 -8.196506E-3
-8.832801E-3 9.779703E-3
4.8842025E-3 7.065179E-5
-4.485658E-3 6.5110303E-3
-4.243824E-3 -9.218983E-3
-3.7671663E-3 -4.212522E-3
8.12243E-3 -1.021317E-2
2.7407098E-3 8.984183E-3
-2.7647666E-3 -4.3170713E-3
3.986274E-4 -8.183507E-4
-6.0254114E-4 3.8563735E-3
-9.257211E-3 1.161304E-2
7.0789955E-3 -9.32564E-3
-5.745874E-3 9.790617E-3
7.5807273E-3 -7.605142E-3
-2.0938015E-3 1.2974903E-3
-2.6373242E-3 8.900703E-3
-2.3870388E-4 9.968214E-3
1.1298015E-2 9.281103E-3
3.507686E-3 -7.2360705E-3
-3.7647812E-3 6.9841584E-3
1.8246189E-3 3.5862194E-3
-5.167635E-3 -9.053722E-3
6.387375E-4 -6.149918E-3
-3.3142604E-3 8.950953E-3
-1.9878364E-4 -8.745127E-3
-4.767289E-3 -9.178195E-3
4.5087617E-3 -8.654846E-3
6.3375756E-3 -9.05106E-3
-2.6052531E-3 9.219385E-3
-1.9950464E-3 7.6726745E-3
3.3358358E-2 0
1.2922733E-2 3.1923526E-3
-1.9938014E-2 -4.602209E-3
1.7863112E-2 2.2910908E-3
1.8794928E-2 -3.5585993E-4
-1.3395008E-2 -8.67846E-3
2.100203E-2 -4.086382E-3
-3.3269506E-2 1.5142132E-4
-4.912515E-4 -3.221578E-3
3.5356947E-3 -5.2380576E-3
4.582503E-3 -8.164776E-3
3.2731406E-2 5.368863E-5
-5.023594E-3 1.2586609E-2
1.9436583E-2 -5.058193E-3
1.184366E-2 1.1519399E-2
3.2518707E-2 -7.223583E-4
-9.473708E-4 1.5802175E-3
-2.4743477E-2 -2.6359942E-3
-1.985197E-2 -2.010752E-3
-1.9564372E-2 7.0067677E-3
-1.7709758E-2 4.714043E-3
-4.1107642E-3 -1.947712E-2
1.8881544E-2 -4.7999565E-3
8.675546E-3 1.8243356E-2
8.083169E-3 9.377564E-3
6.989115E-3 -1.7655078E-2
1.4790312E-3 2.6090562E-2
-7.1845492E-3 -4.067365E-3
3.2802857E-2 1.2065458E-4
2.4490617E-3 -1.3253499E-2
-8.963197E-3 9.1023985E-3
-3.0405445E-2 -7.865408E-4
3.4958879E-3 2.3706287E-2
2.166804E-2 2.1943331E-3
3.8208612E-3 -6.5577135E-4
-1.0475121E-2 1.5163546E-2
2.8449764E-2 1.3573099E-3
-6.5761404E-3 -8.2592275E-3
1.7029094E-2 -1.4275658E-3
-9.590083E-3 1.97276E-2
-1.8766724E-3 1.2069239E-2
-2.8200544E-2 4.2395323E-4
1.1257832E-2 -1.6893806E-2
-3.4252668E-3 1.053734E-2
-1.9139657E-3 4.5543985E-4
7.270537E-3 -4.27853E-3
3.20953E-2 -4.4616533E-4
-2.5287205E-2 9.5128594E-4
2.4237111E-2 -3.8164656E-3
-2.3099605E-2 -2.245286E-3
5.038074E-3 1.7208039E-3
1.8489372E-2 -7.7917166E-3
1.6985863E-2 -1.3263361E-2
2.5529422E-5 -3.1601578E-2
-1.6900372E-2 4.0556644E-3
1.6831752E-2 -3.2807447E-3
3.4924312E-3 -7.964487E-3
-8.047738E-3 2.1044951E-2
-1.1153078E-2 7.361537E-3
1.9501148E-2 -6.729305E-3
-1.4342251E-2 1.2318139E-2
-8.804464E-3 2.05465E-2
-2.0643465E-2 4.3272357E-3
-2.3812154E-2 1.8139984E-3
1.8977992E-2 -8.282094E-3
1.5556817E-2 -7.1819634E-3
5.311656E-3 0
-8.164235E-3 1.2518794E-4
7.1392655E-3 -8.2192937E-4
7.2469334E-3 -1.936508E-3
-6.0196244E-3 -2.080073E-3
7.744938E-3 -3.592896E-3
-1.2873821E-2 3.2425097E-3
-4.9860746E-4 -1.2009987E-3
8.684212E-4 -2.3675386E-3
9.938623E-4 -3.6015012E-3
1.26849925E-2 -3.1115557E-3
-7.41573E-4 5.356693E-3
7.0454977E-3 -3.8195555E-3
5.690521E-3 3.3290896E-3
1.252833E-2 -3.3918344E-3
-2.1577823E-4 7.028245E-4
-9.837665E-3 1.3467587E-3
-7.882903E-3 1.1208612E-3
-6.9085257E-3 4.586646E-3
-6.409475E-3 3.5209795E-3
-3.4564093E-3 -7.151868E-3
6.8551935E-3 -3.666401E-3
5.1066964E-3 6.2370743E-3
4.028769E-3 2.8592362E-3
1.0179526E-3 -7.508271E-3
3.0697978E-3 9.96571E-3
-3.1724726E-3 -8.8810874E-4
1.2719083E-2 -3.0924517E-3
-3.195983E-4 -5.36866E-3
-2.6011746E-3 4.383955E-3
-1.185407E-2 2.6050636E-3
3.6229375E-3 8.849054E-3
8.604002E-3 -1.2235388E-3
1.4174113E-3 -6.1969156E-4
-2.6068368E-3 6.8766796E-3
1.115108E-2 -2.1967972E-3
-3.3379362E-3 -2.5702228E-3
6.4603034E-3 -2.1826888E-3
-1.827206E-3 8.560056E-3
4.2800495E-4 4.8551117E-3
-1.0884068E-2 2.8629918E-3
2.744468E-3 -7.6218713E-3
-3.1850787E-4 4.409866E-3
-6.978683E-4 3.5959738E-4
2.4070914E-3 -2.3532459E-3
1.2390736E-2 -3.24432E-3
-9.705002E-3 2.7884739E-3
9.024011E-3 -3.797926E-3
-9.163453E-3 1.3407989E-3
2.116384E-3 1.8448672E-4
6.4169616E-3 -4.7878516E-3
5.310886E-3 -6.7636347E-3
-3.0143412E-3 -1.2244615E-2
-6.158932E-3 3.1884727E-3
6.2065083E-3 -2.8817086E-3
5.9074553E-4 -3.419593E-3
-1.1036468E-3 8.9227855E-3
-3.6161134E-3 3.9191293E-3
6.910586E-3 -4.4731083E-3
-4.37723E-3 6.144473E-3
-1.4444967E-3 8.8021085E-3
-7.5829844E-3 3.6518865E-3
-9.051019E-3 2.98152E-3
6.5593193E-3 -5.0245794E-3
5.3392677E-3 -4.2709964E-3
1.25517165E-2 0
-1.0992718E-2 1.0950773E-3
-1.1184477E-2 2.8056933E-3
9.203388E-3 3.3390315E-3
-1.19889695E-2 5.3398926E-3
1.9864015E-2 -4.680454E-3
7.3807454E-4 1.857736E-3
-1.3905987E-3 3.6185372E-3
-1.6124896E-3 5.5122324E-3
-1.9570693E-2 4.4836234E-3
1.2660776E-3 -8.215981E-3
-1.0919242E-2 5.7047633E-3
-8.668104E-3 -5.2510654E-3
-1.93365E-2 4.918115E-3
3.482246E-4 -1.0751847E-3
1.5152638E-2 -1.8381644E-3
1.2142765E-2 -1.5370214E-3
1.072679E-2 -6.8870406E-3
9.934612E-3 -5.2608293E-3
5.1440853E-3 1.1074178E-2
-1.0623127E-2 5.473843E-3
-7.7022044E-3 -9.706999E-3
-6.124996E-3 -4.4897166E-3
-1.7415937E-3 1.151653E-2
-4.4835294E-3 -1.539006E-2
4.8552896E-3 1.4398304E-3
-1.962264E-2 4.453456E-3
3.647045E-4 8.259385E-3
4.101436E-3 -6.6770148E-3
1.8281594E-2 -3.7247078E-3
-5.3600464E-3 -1.3686749E-2
-1.3253543E-2 1.6778462E-3
-2.1932248E-3 9.190853E-4
4.1688895E-3 -1.0508303E-2
-1.7191444E-2 3.113753E-3
5.069969E-3 4.0292093E-3
-9.981195E-3 3.2026232E-3
3.0102395E-3 -1.3114096E-2
-5.434332E-4 -7.4725943E-3
1.679674E-2 -4.1440157E-3
-4.397997E-3 1.1650448E-2
5.934936E-4 -6.770639E-3
1.0811276E-3 -5.362684E-4
-3.7552614E-3 3.5603044E-3
-1.9121537E-2 4.694622E-3
1.498271E-2 -4.0572667E-3
-1.395979E-2 5.6248866E-3
1.4116207E-2 -1.844894E-3
-3.248622E-3 -3.3344384E-4
-9.975977E-3 7.2078877E-3
-8.3224615E-3 1.0270816E-2
4.3445793E-3 1.8891523E-2
9.541681E-3 -4.755657E-3
-9.607578E-3 4.2830273E-3
-9.885952E-4 5.2421326E-3
1.9066479E-3 -1.3688679E-2
5.650484E-3 -5.938637E-3
-1.072728E-2 6.71248E-3
6.8728006E-3 -9.341145E-3
2.427704E-3 -1.349516E-2
1.174143E-2 -5.434381E-3
1.3982061E-2 -4.3694004E-3
-1.0200367E-2 7.568393E-3
-8.307337E-3 6.438859E-3
9.722896E-3 0
1.0040081E-2 -1.4814172E-3
-7.7689565E-3 -3.7272552E-3
1.0965748E-2 -3.6306654E-3
-1.7805133E-2 2.366073E-3
-4.8432258E-4 -1.6913874E-3
1.5335779E-3 -3.0477701E-3
1.8931243E-3 -4.6868976E-3
1.7531069E-2 -2.2192807E-3
-1.825628E-3 7.0850467E-3
1.0060719E-2 -4.043545E-3
7.133343E-3 5.355102E-3
1.7363874E-2 -2.6202383E-3
-3.9877772E-4 9.1125927E-4
-1.343096E-2 2.8785763E-4
-1.0768658E-2 2.8671563E-4
-9.995319E-3 5.095767E-3
-9.159655E-3 3.740655E-3
-3.5389895E-3 -1.0147495E-2
9.781237E-3 -3.8671412E-3
5.8986545E-3 9.173312E-3
4.972528E-3 4.466443E-3
2.5300398E-3 -9.934163E-3
2.583938E-3 1.3869687E-2
-4.1266154E-3 -1.6845956E-3
1.7573932E-2 -2.1883284E-3
4.0118577E-4 -7.2653377E-3
-4.1745505E-3 5.489859E-3
-1.6335871E-2 1.667095E-3
3.5001924E-3 1.245441E-2
1.1753757E-2 -3.1313984E-4
2.000999E-3 -6.1358104E-4
-4.5678876E-3 8.839391E-3
1.5327822E-2 -1.2271346E-3
-4.0887194E-3 -3.9710873E-3
9.0208845E-3 -1.9340266E-3
-3.7804917E-3 1.1222617E-2
-1.7601247E-4 6.591865E-3
-1.5072029E-2 2.1638689E-3
4.8681847E-3 -9.819687E-3
-1.1104841E-3 5.877906E-3
-9.936319E-4 3.753374E-4
3.5994549E-3 -2.7904646E-3
1.7156111E-2 -2.4432587E-3
-1.3475743E-2 2.24616E-3
1.27166435E-2 -3.708317E-3
-1.2523847E-2 3.8417586E-4
2.816032E-3 5.754548E-4
9.365753E-3 -5.4422677E-3
8.184841E-3 -8.269024E-3
-2.156761E-3 -1.6924124E-2
-8.771455E-3 3.33251E-3
8.787932E-3 -2.9128343E-3
1.3231566E-3 -4.504778E-3
-2.8641024E-3 1.1822117E-2
-5.4667774E-3 4.7080447E-3
9.980519E-3 -4.942845E-3
-6.8341275E-3 7.581299E-3
-3.3035562E-3 1.1607174E-2
-1.0757197E-2 3.7350142E-3
-1.26266135E-2 2.606826E-3
9.593726E-3 -5.7384195E-3
7.837275E-3 -4.9143387E-3
1.0593327E-2 0
-7.4545005E-3 -5.032555E-3
1.18766595E-2 -2.078324E-3
-1.8746484E-2 -2.6959777E-4
-2.4241615E-4 -1.8203579E-3
2.047977E-3 -2.913534E-3
2.6689966E-3 -4.5513525E-3
1.8441115E-2 3.794218E-4
-2.9646894E-3 7.0380187E-3
1.1005015E-2 -2.642566E-3
6.5501262E-3 6.616662E-3
1.8329555E-2 -6.0091712E-5
-5.5062975E-4 8.8022754E-4
-1.391297E-2 -1.7491436E-3
-1.1163644E-2 -1.3446842E-3
-1.1097802E-2 3.7390788E-3
-1.0028406E-2 2.467085E-3
-2.108329E-3 -1.1017745E-2
1.0689538E-2 -2.5029904E-3
4.693403E-3 1.0371309E-2
4.4542206E-3 5.3697824E-3
4.1261828E-3 -9.872752E-3
5.54994E-4 1.471585E-2
-4.004564E-3 -2.368298E-3
1.848066E-2 4.1791413E-4
1.5212483E-3 -7.441225E-3
-5.1471908E-3 5.0329007E-3
-1.7122794E-2 -7.6751603E-4
1.7167763E-3 1.3394006E-2
1.2184905E-2 1.4674923E-3
2.1597638E-3 -3.2871772E-4
-6.0637062E-3 8.431774E-3
1.6014826E-2 1.0682385E-3
-3.6170536E-3 -4.723607E-3
9.609844E-3 -6.226631E-4
-5.613741E-3 1.1012715E-2
-1.1861161E-3 6.78009E-3
-1.589341E-2 -6.197229E-5
6.523162E-3 -9.398296E-3
-2.042291E-3 5.9004603E-3
-1.0832343E-3 2.361883E-4
4.1420436E-3 -2.3330697E-3
1.808805E-2 9.100506E-5
-1.4257588E-2 2.662198E-4
1.3696506E-2 -1.8917348E-3
-1.299094E-2 -1.5114723E-3
2.8202194E-3 1.0232889E-3
1.0500493E-2 -4.1928063E-3
9.71175E-3 -7.2917067E-3
3.5150425E-4 -1.7804842E-2
-9.565356E-3 2.1047725E-3
9.518426E-3 -1.6688955E-3
2.0526862E-3 -4.450134E-3
-4.758799E-3 1.1771398E-2
-6.362453E-3 4.0286933E-3
1.1059218E-2 -3.5834236E-3
-8.212188E-3 6.7873457E-3
-5.17984E-3 1.14824865E-2
-1.1677205E-2 2.2178516E-3
-1.3435711E-2 7.6802867E-4
1.0781025E-2 -4.4638845E-3
8.841714E-3 -3.8805392E-3
7.636523E-3 0
-7.370232E-3 7.104737E-3
1.3319937E-2 -8.716147E-3
1.0353823E-3 1.1658174E-3
-5.702875E-5 3.0231762E-3
2.8403706E-4 4.470732E-3
-1.3157222E-2 8.493792E-3
-1.2572955E-3 -6.3610687E-3
-6.4888042E-3 7.087703E-3
-7.7526765E-3 -1.5443717E-3
-1.2869919E-2 8.750078E-3
-3.0691404E-5 -8.8100095E-4
1.0621488E-2 -5.3787446E-3
8.494647E-3 -4.3572425E-3
6.0331794E-3 -7.903396E-3
5.884933E-3 -6.500261E-3
6.7178095E-3 6.7515625E-3
-6.333112E-3 6.8396106E-3
-8.229819E-3 -5.068579E-3
-5.6854393E-3 -1.6626444E-3
1.7866477E-3 8.907652E-3
-7.3815836E-3 -1.00918505E-2
3.9431066E-3 -2.3587613E-4
-1.3203336E-2 8.485492E-3
2.4645922E-3 5.9590703E-3
1.231094E-3 -5.9869085E-3
1.2413895E-2 -7.5944E-3
-7.571161E-3 -8.609746E-3
-9.27165E-3 4.7559924E-3
-1.3636576E-3 1.2573535E-3
2.6134698E-4 -8.8140955E-3
-1.1777083E-2 6.856421E-3
4.7893496E-3 1.6056437E-3
-6.466618E-3 5.0035E-3
-1.2814167E-3 -1.0416534E-2
-2.3863392E-3 -5.33462E-3
1.1213598E-2 -7.5068474E-3
-1.2550125E-4 9.712507E-3
-1.3659666E-3 -5.1223678E-3
6.5006403E-4 -6.8081566E-4
-1.8063791E-3 3.6095302E-3
-1.2771754E-2 8.529021E-3
9.90656E-3 -6.9606686E-3
-8.739496E-3 7.8379875E-3
9.859748E-3 -5.107966E-3
-2.4707143E-3 6.197112E-4
-5.397303E-3 7.9389205E-3
-3.3700773E-3 9.744903E-3
8.211166E-3 1.2696217E-2
5.7312082E-3 -6.025322E-3
-5.905255E-3 5.696302E-3
6.6964736E-4 4.106716E-3
-2.2434632E-3 -1.0544261E-2
2.5633385E-3 -5.8575827E-3
-6.079976E-3 7.7755325E-3
2.5544446E-3 -8.677592E-3
-1.8099248E-3 -1.0540978E-2
7.163591E-3 -7.1081687E-3
9.089813E-3 -6.923342E-3
-5.465932E-3 8.262949E-3
-4.378372E-3 6.9311457E-3
1.372321E-2 0
-2.0964641E-2 -3.9801653E-3
8.5355474E-5 -2.0884457E-3
2.8676912E-3 -2.8646984E-3
3.885271E-3 -4.5790924E-3
2.0600729E-2 4.043382E-3
-4.704649E-3 7.308994E-3
1.2856671E-2 -8.036066E-4
6.0455087E-3 8.703319E-3
2.0561883E-2 3.528737E-3
-7.900294E-4 8.7883393E-4
-1.5255293E-2 -4.6906546E-3
-1.2252249E-2 -3.6978018E-3
-1.3175825E-2 2.0147532E-3
-1.1727323E-2 7.984698E-4
-2.0215208E-4 -1.276613E-2
1.2475591E-2 -7.090163E-4
3.2272208E-3 1.2548552E-2
3.9403206E-3 6.894188E-3
6.5630036E-3 -1.0259267E-2
-2.2649001E-3 1.6607491E-2
-4.0250574E-3 -3.4408686E-3
2.0637512E-2 4.094296E-3
3.1654474E-3 -8.044238E-3
-6.758162E-3 4.632776E-3
-1.9046558E-2 -4.219848E-3
-7.0303836E-4 1.5353443E-2
1.3373138E-2 4.035851E-3
2.485901E-3 5.518766E-5
-8.45254E-3 8.263594E-3
1.7745366E-2 4.339628E-3
-3.1285097E-3 -6.005486E-3
1.0896192E-2 1.1872769E-3
-8.454423E-3 1.1245484E-2
-2.6600068E-3 7.3687597E-3
-1.7806664E-2 -3.187637E-3
9.157281E-3 -9.257062E-3
-3.4473266E-3 6.2145926E-3
-1.2608013E-3 5.2279644E-5
5.101562E-3 -1.803075E-3
2.0261476E-2 3.650757E-3
-1.6037058E-2 -2.4987506E-3
1.5726915E-2 5.6623196E-4
-1.4268193E-2 -4.2432966E-3
2.9611147E-3 1.7005595E-3
1.2595173E-2 -2.6406345E-3
1.2318856E-2 -6.2696966E-3
3.8872508E-3 -1.9892853E-2
-1.1137092E-2 4.8311122E-4
1.0998962E-2 -3.6368053E-6
3.174439E-3 -4.586526E-3
-7.644757E-3 1.2263809E-2
-7.923631E-3 3.26849E-3
1.3102029E-2 -1.84781E-3
-1.0538678E-2 5.9984364E-3
-8.060122E-3 1.1857294E-2
-1.3526967E-2 1.9556245E-4
-1.5214066E-2 -1.7749046E-3
1.2962872E-2 -2.8895147E-3
1.0674175E-2 -2.6159766E-3
3.318158E-2 0
4.7531954E-4 3.2152273E-3
-3.5500538E-3 5.2080564E-3
-4.607359E-3 8.122226E-3
-3.2643978E-2 -2.0212124E-4
5.0673466E-3 -1.2530281E-2
-1.9407773E-2 4.956492E-3
-1.1759826E-2 -1.1542478E-2
-3.2435372E-2 5.728236E-4
9.5202046E-4 -1.5717082E-3
2.4665603E-2 2.7412898E-3
1.9789964E-2 2.0955086E-3
1.9544069E-2 -6.8992986E-3
1.7683985E-2 -4.6210983E-3
4.011404E-3 1.94439E-2
-1.885304E-2 4.7014644E-3
-8.569629E-3 -1.8234143E-2
-8.019072E-3 -9.3892785E-3
-7.0506404E-3 1.757633E-2
-1.3566609E-3 -2.6027784E-2
7.1469503E-3 4.0891436E-3
-3.2714937E-2 -2.6923278E-4
-2.5026994E-3 1.3207081E-2
8.98064E-3 -9.0374695E-3
3.032089E-2 9.224635E-4
-3.378967E-3 -2.3659015E-2
-2.1600366E-2 -2.2868447E-3
-3.813661E-3 6.366809E-4
1.0516051E-2 -1.507561E-2
-2.8367825E-2 -1.4828348E-3
6.5211346E-3 8.2670795E-3
-1.6990216E-2 1.3464647E-3
9.654087E-3 -1.9631524E-2
1.9264588E-3 -1.2028574E-2
2.8127354E-2 -2.9481377E-4
-1.130453E-2 1.6797706E-2
3.4639752E-3 -1.0493726E-2
1.9109352E-3 -4.4553872E-4
-7.2705923E-3 4.234131E-3
-3.2011837E-2 2.9928773E-4
2.522417E-2 -8.3396886E-4
-2.4189878E-2 3.6962822E-3
2.3027888E-2 2.34416E-3
-5.0168443E-3 -1.7390895E-3
-1.8475492E-2 7.6870355E-3
-1.7000828E-2 1.315093E-2
-1.6890872E-4 3.151729E-2
1.6873768E-2 -3.968147E-3
-1.6801812E-2 3.1956027E-3
-3.519282E-3 7.927421E-3
8.12183E-3 -2.0952366E-2
1.1156786E-2 -7.291302E-3
-1.9479752E-2 6.62286E-3
1.4359964E-2 -1.2220227E-2
8.874278E-3 -2.045181E-2
2.0608123E-2 -4.2220047E-3
2.3756962E-2 -1.7010785E-3
-1.8965038E-2 8.173889E-3
-1.5547981E-2 7.0922174E-3
3.183578E-4 0
4.5379618E-4 4.1859734E-4
7.2102767E-4 5.6279293E-4
-4.8720362E-4 3.1602392E-3
-1.1415699E-3 -6.705094E-4
2.0226146E-4 1.9515745E-3
-1.2868997E-3 9.741593E-4
-4.091248E-4 3.151127E-3
-1.3865781E-4 -1.14763236E-4
6.1895535E-4 -2.3507783E-3
4.8653784E-4 -1.8875893E-3
-3.88563E-4 -1.9926112E-3
-1.944554E-4 -1.7797382E-3
1.9415367E-3 -1.1016685E-4
1.8549614E-4 1.8941688E-3
-1.8896095E-3 5.69179E-4
-1.0246735E-3 6.425321E-4
1.6021113E-3 9.349701E-4
-2.5414727E-3 -2.4138523E-4
4.986083E-4 -6.339487E-4
-4.9472315E-4 3.1661538E-3
1.2438884E-3 4.3169528E-4
-7.4706634E-4 -9.996656E-4
5.237256E-4 -2.9248178E-3
-2.340913E-3 -1.149557E-5
-5.310116E-4 2.0602727E-3
7.063135E-6 3.786563E-4
-1.3101553E-3 -1.2349391E-3
-5.500472E-4 2.727543E-3
8.94477E-4 -5.134603E-4
-1.1291183E-4 1.6656049E-3
-1.7639616E-3 -1.2166789E-3
-1.137948E-3 -3.589769E-4
3.7435195E-4 -2.7297065E-3
1.4657283E-3 1.3360098E-3
-9.6719986E-4 -4.8597265E-4
-1.5798021E-5 -1.9154795E-4
3.0612887E-4 7.651586E-4
-4.2956273E-4 3.1061687E-3
2.8052134E-4 -2.456117E-3
1.1646851E-5 2.3968983E-3
5.570143E-4 -2.1977753E-3
-2.4037951E-4 4.6120983E-4
4.8020016E-4 1.9003528E-3
1.0307648E-3 1.83573E-3
3.0515415E-3 4.6784588E-4
-1.4279193E-4 -1.6918766E-3
6.89647E-5 1.6738375E-3
7.177378E-4 4.5456996E-4
-1.9138978E-3 -1.0871273E-3
-5.466935E-4 -1.1855162E-3
3.6269808E-4 1.9824193E-3
-9.784113E-4 -1.5665035E-3
-1.8546162E-3 -1.1528676E-3
-1.138963E-4 -2.0573644E-3
1.7548287E-4 -2.3263686E-3
5.203627E-4 1.9547627E-3
4.6449955E-4 1.6081623E-3
1.1972527E-3 0
1.7677697E-3 -1.4583269E-4
3.4608126E-3 5.1453016E-3
-2.5088552E-3 5.4524676E-4
2.854365E-3 2.515883E-3
-5.5349566E-4 3.0806926E-3
3.5601263E-3 5.0296485E-3
-3.4854488E-4 1.8729454E-5
-2.2086785E-3 -4.1647083E-3
-1.7883995E-3 -3.3303546E-3
-3.1738821E-3 -2.3294168E-3
-2.6172968E-3 -2.2812067E-3
2.6226668E-3 -2.7098923E-3
2.7549865E-3 2.4560993E-3
-1.9451095E-3 3.295904E-3
-6.157559E-4 2.2631902E-3
3.5130535E-3 -7.7382644E-4
-3.940076E-3 2.997615E-3
-1.2282623E-4 -1.5592506E-3
3.4578708E-3 5.1636193E-3
2.3406944E-3 -1.020194E-3
-2.379314E-3 -4.4266065E-4
-3.099206E-3 -4.857746E-3
-3.351919E-3 3.0615972E-3
1.9520605E-3 3.6349792E-3
5.079497E-4 5.3046027E-4
-3.49131E-3 -3.764035E-5
2.8022965E-3 4.6111546E-3
5.998821E-4 -1.9080169E-3
2.0290972E-3 2.5226641E-3
-4.1141687E-3 5.850818E-4
-2.0940693E-3 9.845516E-4
-3.0555818E-3 -4.383222E-3
3.8459622E-3 -2.2848075E-5
-2.017662E-3 5.7901745E-4
-2.7437854E-4 -2.522656E-4
1.4424446E-3 6.8816077E-4
3.4718795E-3 4.992437E-3
-2.8295976E-3 -3.869866E-3
3.1681983E-3 3.4012925E-3
-2.095793E-3 -3.8651696E-3
2.6378466E-4 9.73488E-4
3.1831972E-3 2.0774184E-3
3.8830172E-3 1.2613853E-3
4.9649067E-3 -3.3454823E-3
-2.428128E-3 -2.2238963E-3
2.2991737E-3 2.2952561E-3
1.6207816E-3 -2.9577114E-4
-4.157549E-3 9.668944E-4
-2.3380655E-3 -9.710405E-4
3.1236126E-3 2.3488975E-3
-3.4543949E-3 -9.464602E-4
-4.159487E-3 7.9523894E-4
-2.8675064E-3 -2.782867E-3
-2.8087213E-3 -3.5468077E-3
3.3119877E-3 2.1021676E-3
2.776626E-3 1.6815659E-3
2.6279136E-3 0
4.483236E-3 8.018697E-3
-3.7707936E-3 4.9947493E-4
3.908082E-3 4.0624347E-3
-1.1924955E-3 4.481291E-3
4.6439623E-3 7.860031E-3
-5.1691546E-4 -1.4800446E-5
-2.753875E-3 -6.4183134E-3
-2.234953E-3 -5.135179E-3
-4.402569E-3 -3.8260329E-3
-3.5866308E-3 -3.6870542E-3
4.202506E-3 -3.6817584E-3
3.76863E-3 3.962058E-3
-3.2734575E-3 4.6295477E-3
-1.1848473E-3 3.2666465E-3
5.281357E-3 -7.146603E-4
-6.182736E-3 3.9461185E-3
8.570556E-6 -2.3172286E-3
4.4766613E-3 8.045386E-3
3.5803523E-3 -1.2212279E-3
-3.4591905E-3 -9.4341306E-4
-3.984342E-3 -7.5500705E-3
-5.3221025E-3 4.1122306E-3
2.439497E-3 5.604898E-3
6.853855E-4 8.4510754E-4
-5.1504103E-3 -4.808396E-4
3.5759853E-3 7.1498067E-3
1.118147E-3 -2.7441592E-3
2.6887301E-3 3.9719245E-3
-6.1459257E-3 3.6275527E-4
-3.211863E-3 1.1986415E-3
-3.97773E-3 -6.844112E-3
5.68143E-3 4.34726E-4
-3.04965E-3 6.091685E-4
-3.743984E-4 -4.0589666E-4
2.0459788E-3 1.191783E-3
4.5181974E-3 7.7943383E-3
-3.706589E-3 -6.058604E-3
4.2636157E-3 5.407988E-3
-2.6236826E-3 -5.9622875E-3
2.7090707E-4 1.4695068E-3
4.4470183E-3 3.4550861E-3
5.579715E-3 2.335438E-3
7.7382936E-3 -4.3349215E-3
-3.3142993E-3 -3.5793923E-3
3.115204E-3 3.6690491E-3
2.4291463E-3 -2.3929145E-4
-6.2564854E-3 9.212258E-4
-3.3339262E-3 -1.7185531E-3
4.3259724E-3 3.848673E-3
-4.9852044E-3 -1.8182354E-3
-6.2384377E-3 6.6753675E-4
-3.8949652E-3 -4.4582435E-3
-3.7151154E-3 -5.5790585E-3
4.6341657E-3 3.5073166E-3
3.8949242E-3 2.8210785E-3
3.2116316E-2 0
-4.9089203E-3 1.2358136E-2
1.9063143E-2 -4.9944087E-3
1.1639603E-2 1.1283834E-2
3.190637E-2 -7.6111854E-4
-9.270222E-4 1.5520429E-3
-2.4282677E-2 -2.5466292E-3
-1.9482095E-2 -1.9410095E-3
-1.9185392E-2 6.906567E-3
-1.7369322E-2 4.653947E-3
-4.0648514E-3 -1.9104438E-2
1.851895E-2 -4.7401325E-3
8.541856E-3 1.7886516E-2
7.946341E-3 9.188308E-3
6.8293433E-3 -1.7334508E-2
1.4932256E-3 2.5597824E-2
-7.056065E-3 -3.9793574E-3
3.2186538E-2 6.5591914E-5
2.381702E-3 -1.3008347E-2
-8.780087E-3 8.94575E-3
-2.9835254E-2 -7.2282134E-4
3.4683384E-3 2.3255112E-2
2.126433E-2 2.1182182E-3
3.7479943E-3 -6.4959575E-4
-1.0253841E-2 1.4895414E-2
2.791725E-2 1.2860115E-3
-6.465838E-3 -8.093414E-3
1.670674E-2 -1.4281427E-3
-9.3780905E-3 1.9372264E-2
-1.8219763E-3 1.1845424E-2
-2.7669845E-2 4.6137176E-4
1.1019057E-2 -1.6594414E-2
-3.3439312E-3 1.0344809E-2
-1.8772604E-3 4.4996044E-4
7.1270037E-3 -4.2098183E-3
3.149136E-2 -4.894349E-4
-2.4810413E-2 9.741067E-4
2.3775445E-2 -3.7837455E-3
-2.2669071E-2 -2.16591E-3
4.946156E-3 1.6803537E-3
1.8129332E-2 -7.6750326E-3
1.6645277E-2 -1.304142E-2
-2.581151E-5 -3.1007681E-2
-1.657621E-2 4.00664E-3
1.6510127E-2 -3.2461747E-3
3.4139745E-3 -7.820419E-3
-7.862614E-3 2.0662371E-2
-1.0931613E-2 7.24113E-3
1.91238E-2 -6.6342163E-3
-1.4052869E-2 1.2109708E-2
-8.605919E-3 2.0174509E-2
-2.0248516E-2 4.2791315E-3
-2.3361694E-2 1.8182297E-3
1.8607978E-2 -8.15698E-3
1.5252874E-2 -7.072019E-3
5.5056443E-3 0
-4.83558E-3 -6.571978E-3
2.562849E-3 -6.2035522E-3
-5.169704E-3 -1.2161015E-2
7.3890894E-4 1.1948479E-4
2.7316373E-3 9.733053E-3
2.2309155E-3 7.793255E-3
5.590051E-3 6.32675E-3
4.4456758E-3 5.972248E-3
-6.72995E-3 4.484205E-3
-4.6545574E-3 -6.401443E-3
5.5770003E-3 -6.020768E-3
2.3210132E-3 -4.4621127E-3
-7.7140513E-3 2.1663864E-5
9.621628E-3 -4.4871625E-3
-4.5272248E-4 3.3233627E-3
-4.894414E-3 -1.2395183E-2
-5.3695603E-3 1.0718397E-3
4.7842823E-3 2.0111753E-3
4.2821267E-3 1.1590881E-2
8.418277E-3 -4.889094E-3
-2.4351384E-3 -8.506132E-3
-8.2283403E-4 -1.3429127E-3
7.2989324E-3 1.6688703E-3
-3.772252E-3 -1.09389275E-2
-2.1259983E-3 3.725073E-3
-3.1031342E-3 -6.210349E-3
8.887736E-3 6.476092E-4
4.836522E-3 -1.1094674E-3
4.4068177E-3 1.0576645E-2
-8.069658E-3 -1.7036303E-3
4.4917245E-3 -2.9446345E-4
4.6007746E-4 6.535812E-4
-2.7092583E-3 -2.0989585E-3
-5.0017284E-3 -1.2042848E-2
4.1670552E-3 9.397984E-3
-5.089992E-3 -8.570286E-3
2.631499E-3 9.053957E-3
-1.0942245E-4 -2.1600854E-3
-5.7243346E-3 -5.802926E-3
-7.562448E-3 -4.41163E-3
-1.1927594E-2 4.7493987E-3
4.0753707E-3 5.766003E-3
-3.7726478E-3 -5.8568106E-3
-3.531063E-3 -1.1833684E-4
9.152524E-3 -1.3272671E-4
4.457213E-3 3.0996152E-3
-5.475838E-3 -6.3446783E-3
6.8076868E-3 3.5565E-3
9.07841E-3 2.2786122E-4
4.741529E-3 7.137431E-3
4.2704344E-3 8.711505E-3
-5.9829443E-3 -5.9134425E-3
-5.052638E-3 -4.788255E-3
1.2091905E-2 0
5.1541193E-3 8.5077705E-3
1.9056886E-2 4.5099854E-3
-7.9160667E-4 7.770781E-4
-1.4017335E-2 -5.2877897E-3
-1.12620555E-2 -4.181777E-3
-1.2461829E-2 1.11598E-3
-1.1033568E-2 6.131965E-5
5.581748E-4 -1.1971862E-2
1.1729349E-2 6.6302186E-5
2.28862E-3 1.1945164E-2
3.2878015E-3 6.689599E-3
6.7493524E-3 -9.227137E-3
-3.09439E-3 1.5426197E-2
-3.5694076E-3 -3.4592983E-3
1.909462E-2 5.044262E-3
3.436624E-3 -7.3509286E-3
-6.6027115E-3 3.944498E-3
-1.7596774E-2 -5.0687226E-3
-1.5577158E-3 1.4342795E-2
1.2292371E-2 4.5641176E-3
2.3256992E-3 1.9727279E-4
-8.402714E-3 7.246831E-3
1.6370729E-2 5.104743E-3
-2.579292E-3 -5.809475E-3
1.0138636E-2 1.7503687E-3
-8.579093E-3 1.0040322E-2
-2.9235443E-3 6.7477003E-3
-1.6495617E-2 -4.029082E-3
9.12113E-3 -8.136299E-3
-3.5935633E-3 5.6203078E-3
-1.1842505E-3 -2.4851786E-5
4.8850137E-3 -1.390483E-3
1.8768301E-2 4.6067093E-3
-1.48780905E-2 -3.2800708E-3
1.4700695E-2 1.4514179E-3
-1.3118761E-2 -4.810877E-3
2.6745563E-3 1.7665767E-3
1.1954492E-2 -1.7363427E-3
1.1908134E-2 -5.1524313E-3
4.8066834E-3 -1.8409105E-2
-1.0462142E-2 -1.9956274E-4
1.0304656E-2 6.4067275E-4
3.2425711E-3 -4.1110246E-3
-7.880182E-3 1.10417595E-2
-7.6146973E-3 2.5981106E-3
1.2382917E-2 -9.639005E-4
-1.0224481E-2 5.0025443E-3
-8.245515E-3 1.0636589E-2
-1.268427E-2 -6.089015E-4
-1.4149452E-2 -2.553738E-3
1.23135485E-2 -1.9479758E-3
1.0153351E-2 -1.8257329E-3
8.182921E-3 0
1.1296101E-2 -1.1485917E-2
2.093274E-4 8.8819425E-4
-9.695274E-3 7.608592E-3
-7.7426657E-3 6.1414316E-3
-4.5266026E-3 9.243728E-3
-4.6598637E-3 7.7892705E-3
-8.18539E-3 -5.495679E-3
5.0462317E-3 -8.224418E-3
9.38004E-3 3.4813166E-3
6.1081606E-3 5.3813925E-4
-3.6152613E-3 -8.681817E-3
9.534784E-3 8.752534E-3
-3.955379E-3 1.0368977E-3
1.1688098E-2 -1.1284733E-2
-3.7072112E-3 -5.5512823E-3
-3.905718E-5 6.3269404E-3
-1.1066859E-2 1.02204345E-2
9.42751E-3 7.2095483E-3
8.450845E-3 -6.703383E-3
1.1301183E-3 -1.5522573E-3
1.5171956E-3 9.001013E-3
1.0569607E-2 -9.342446E-3
-5.1869135E-3 -6.6149223E-4
5.5530937E-3 -6.38738E-3
3.4074944E-3 1.0315823E-2
3.5014825E-3 4.93316E-3
-9.866012E-3 9.888809E-3
-1.8367979E-3 -9.8856175E-3
2.422665E-3 4.9240342E-3
-5.222669E-4 8.226366E-4
1.1038815E-3 -4.0297443E-3
1.1241148E-2 -1.1241643E-2
-8.649551E-3 9.069994E-3
7.287311E-3 -9.724636E-3
-8.976708E-3 7.1796444E-3
2.3829672E-3 -1.1288017E-3
3.8738702E-3 -9.151196E-3
1.450577E-3 -1.0574672E-2
-1.0903678E-2 -1.1228743E-2
-4.59985E-3 7.276018E-3
4.8430846E-3 -6.977192E-3
-1.5103541E-3 -4.033753E-3
4.4100047E-3 1.0250934E-2
-1.4177195E-3 6.4650746E-3
4.5999694E-3 -9.123383E-3
-8.3838636E-4 9.326177E-3
3.969208E-3 1.0335278E-2
-5.8350307E-3 8.665013E-3
-7.827929E-3 8.866926E-3
3.878013E-3 -9.494034E-3
3.0432479E-3 -7.922029E-3
3.1715833E-2 0
-9.5774373E-4 1.5199276E-3
-2.4063587E-2 -3.1054525E-3
-1.930874E-2 -2.390024E-3
-1.9223653E-2 6.4067473E-3
-1.7366072E-2 4.211892E-3
-3.585527E-3 -1.9075884E-2
1.8510224E-2 -4.270269E-3
8.062128E-3 1.7972022E-2
7.676644E-3 9.316562E-3
7.195507E-3 -1.7059345E-2
8.7682594E-4 2.5465874E-2
-6.9156336E-3 -4.1205646E-3
3.1974576E-2 8.27947E-4
2.6744152E-3 -1.2866868E-2
-8.934694E-3 8.6791925E-3
-2.9623087E-2 -1.4251575E-3
2.8945461E-3 2.3185287E-2
2.1075126E-2 2.6083114E-3
3.738888E-3 -5.565265E-4
-1.0539816E-2 1.4555037E-2
2.7704274E-2 1.9392109E-3
-6.2317657E-3 -8.193741E-3
1.6631372E-2 -1.0228765E-3
-9.775885E-3 1.9023377E-2
-2.0907884E-3 1.172481E-2
-2.7499897E-2 -1.9738641E-4
1.134029E-2 -1.6224796E-2
-3.5672316E-3 1.01979375E-2
-1.8756522E-3 4.0253004E-4
7.180182E-3 -4.0133973E-3
3.12971E-2 2.6007253E-4
-2.467131E-2 3.7976052E-4
2.3709694E-2 -3.1955608E-3
-2.2469554E-2 -2.6889823E-3
4.874E-3 1.7865871E-3
1.8192708E-2 -7.195216E-3
1.6845532E-2 -1.2561694E-2
7.092033E-4 -3.0805593E-2
-1.6562803E-2 3.5876113E-3
1.6479129E-2 -2.8336835E-3
3.5769918E-3 -7.688389E-3
-8.300888E-3 2.0340966E-2
-1.1031758E-2 6.934728E-3
1.915601E-2 -6.137636E-3
-1.4247991E-2 1.1697509E-2
-9.027773E-3 1.9838676E-2
-2.0217562E-2 3.7712932E-3
-2.3252068E-2 1.252699E-3
1.8679649E-2 -7.6626698E-3
1.5320763E-2 -6.664314E-3
1.0176157E-4 0
5.7784026E-4 1.246984E-3
4.6854073E-4 9.975118E-4
8.875417E-4 7.277924E-4
7.2626234E-4 7.0505036E-4
-8.05905E-4 7.4787723E-4
-7.6361076E-4 -7.5811916E-4
6.178214E-4 -9.2907675E-4
2.1466383E-4 -6.492285E-4
-1.0348277E-3 1.7031965E-4
1.1939309E-3 -8.1103E-4
1.1364803E-5 4.5585138E-4
-9.258792E-4 -1.5573297E-3
-6.973839E-4 2.6038234E-4
6.857425E-4 1.6608888E-4
8.2624954E-4 1.4626727E-3
1.0237072E-3 -8.388575E-4
-5.1142037E-4 -1.0887545E-3
-1.3957622E-4 -1.623741E-4
1.0158033E-3 6.5574866E-5
-7.436706E-4 -1.38624E-3
-2.0448644E-4 5.460785E-4
-5.512481E-4 -7.661419E-4
1.2068719E-3 -1.0596855E-4
6.250286E-4 -2.5386421E-4
8.209729E-4 1.3238468E-3
-1.1199961E-3 -5.3513508E-5
5.9644086E-4 -1.3700021E-4
7.593087E-5 7.7731995E-5
-4.091599E-4 -2.2290292E-4
-9.326355E-4 -1.5077143E-3
7.6321495E-4 1.1708629E-3
-8.6911884E-4 -1.0397484E-3
5.4966286E-4 1.1580163E-3
-6.15642E-5 -2.8752894E-4
-8.9419563E-4 -6.545761E-4
-1.1106934E-3 -4.2795995E-4
-1.4977222E-3 8.962692E-4
6.72088E-4 6.8540685E-4
-6.334305E-4 -7.041638E-4
-4.764698E-4 6.075004E-5
1.2254738E-3 -2.164434E-4
6.654682E-4 3.1926585E-4
-8.726024E-4 -7.3267723E-4
9.908392E-4 3.295735E-4
1.2233526E-3 -1.6644067E-4
7.912556E-4 8.550082E-4
7.6219125E-4 1.0764874E-3
-9.31302E-4 -6.637959E-4
-7.8202697E-4 -5.32975E-4
1.8561708E-2 0
1.4884037E-2 -7.7242934E-5
1.3958146E-2 -6.7432397E-3
1.276366E-2 -4.896063E-3
4.588241E-3 1.4122268E-2
-1.3626043E-2 5.052385E-3
-7.876665E-3 -1.2846414E-2
-6.7366897E-3 -6.317048E-3
-3.789045E-3 1.36478925E-2
-3.158757E-3 -1.9235734E-2
5.650526E-3 2.4492305E-3
-2.434097E-2 2.5026044E-3
-7.6928694E-4 1.0024275E-2
5.929151E-3 -7.4599576E-3
2.2615315E-2 -1.8192398E-3
-4.4663493E-3 -1.7307833E-2
-1.624561E-2 8.457923E-5
-2.7822945E-3 7.8834314E-4
6.5716635E-3 -1.2075272E-2
-2.1209795E-2 1.2413346E-3
5.5304845E-3 5.6066103E-3
-1.2518479E-2 2.4045415E-3
5.5545336E-3 -1.5390709E-2
4.3829923E-4 -9.100623E-3
2.088418E-2 -2.542887E-3
-7.01551E-3 1.3420537E-2
1.7080167E-3 -8.086711E-3
1.38369E-3 -4.8906385E-4
-5.05481E-3 3.7481103E-3
-2.3771347E-2 2.867129E-3
1.8681547E-2 -2.7038227E-3
-1.7676236E-2 4.7460822E-3
1.7311497E-2 -1.5990771E-4
-3.8729578E-3 -8.782905E-4
-1.3098738E-2 7.2405254E-3
-1.1551144E-2 1.1180297E-2
2.4782366E-3 2.3442406E-2
1.22153275E-2 -4.343754E-3
-1.2225662E-2 3.7635374E-3
-1.9611442E-3 6.1836117E-3
4.306406E-3 -1.6245974E-2
7.6910546E-3 -6.3417223E-3
-1.3933172E-2 6.5324353E-3
9.664942E-3 -1.0270279E-2
4.9070925E-3 -1.5936049E-2
1.4970297E-2 -4.840973E-3
1.751926E-2 -3.2271773E-3
-1.3422421E-2 7.6428726E-3
-1.0971706E-2 6.556511E-3
1.1935352E-2 0
1.1220649E-2 -5.3491015E-3
1.0255144E-2 -3.872881E-3
3.6203945E-3 1.1343285E-2
-1.0947311E-2 3.994642E-3
-6.2625846E-3 -1.0333906E-2
-5.375647E-3 -5.0934716E-3
-3.095108E-3 1.0928039E-2
-2.4528583E-3 -1.5437662E-2
4.5207837E-3 1.9874736E-3
-1.9528655E-2 1.9054655E-3
-6.5858173E-4 8.034943E-3
4.7854404E-3 -5.957227E-3
1.8142065E-2 -1.3646786E-3
-3.5093962E-3 -1.3897181E-2
-1.3027186E-2 2.1636818E-7
-2.2343134E-3 6.2056875E-4
5.319856E-3 -9.655425E-3
-1.7012618E-2 9.071231E-4
4.4113863E-3 4.5187753E-3
-1.0048172E-2 1.8760293E-3
4.5180484E-3 -1.2318202E-2
3.893295E-4 -7.295673E-3
1.6756935E-2 -1.9521515E-3
-5.68136E-3 1.0732304E-2
1.4032561E-3 -6.4773667E-3
1.1115718E-3 -3.864065E-4
-4.0688873E-3 2.984454E-3
-1.9073412E-2 2.2001357E-3
1.4991384E-2 -2.0903668E-3
-1.41937565E-2 3.732173E-3
1.3882198E-2 -5.618394E-5
-3.1019454E-3 -7.2039E-4
-1.0533588E-2 5.751436E-3
-9.309017E-3 8.917051E-3
1.8896646E-3 1.8808026E-2
9.813154E-3 -3.4322846E-3
-9.819028E-3 2.9669842E-3
-1.5983108E-3 4.9502784E-3
3.5207747E-3 -1.3009205E-2
6.1935997E-3 -5.053218E-3
-1.1199747E-2 5.180168E-3
7.7927453E-3 -8.195188E-3
4.0011564E-3 -1.2758183E-2
1.2024346E-2 -3.8195236E-3
1.4061562E-2 -2.5148655E-3
-1.0794814E-2 6.0727187E-3
-8.825143E-3 5.211797E-3
1.29460655E-2 0
1.1376774E-2 9.55109E-4
-1.6801519E-3 1.2286599E-2
-1.2082064E-2 -1.1508502E-3
-1.2561977E-3 -1.252182E-2
-2.7709908E-3 -7.197688E-3
-7.80742E-3 8.886511E-3
4.6127634E-3 -1.5612541E-2
3.3593418E-3 3.8945538E-3
-1.9213235E-2 -6.9608507E-3
-4.220188E-3 7.2586415E-3
7.1687493E-3 -3.4557965E-3
1.7667307E-2 6.847821E-3
2.9290891E-3 -1.4637817E-2
-1.2247199E-2 -5.838227E-3
-2.378642E-3 -4.1795018E-4
9.328596E-3 -6.6930316E-3
-1.640043E-2 -6.7717903E-3
2.1220343E-3 6.2252497E-3
-1.0287262E-2 -2.7396276E-3
9.768186E-3 -9.555705E-3
3.6357387E-3 -6.6843126E-3
1.662841E-2 5.6747487E-3
-1.0151081E-2 7.5434083E-3
4.2222072E-3 -5.460593E-3
1.2181865E-3 1.349083E-4
-5.162789E-3 9.821765E-4
-1.8917315E-2 -6.4797965E-3
1.5030528E-2 4.753539E-3
-1.5016476E-2 -2.8525703E-3
1.3076095E-2 6.168805E-3
-2.5933378E-3 -2.0674597E-3
-1.2480462E-2 6.8616413E-4
-1.2747963E-2 4.2110384E-3
-6.652737E-3 1.8528674E-2
1.0763788E-2 1.1712345E-3
-1.0560774E-2 -1.6113044E-3
-3.721183E-3 3.9375303E-3
9.14032E-3 -1.0652282E-2
8.087435E-3 -1.9748216E-3
-1.2850705E-2 -1.4944923E-4
1.0998967E-2 -4.2119534E-3
9.479434E-3 -1.0200999E-2
1.30161205E-2 1.7981798E-3
1.4346632E-2 3.937738E-3
-1.2870035E-2 8.7113364E-4
-1.0632468E-2 9.4451883E-4
1.0068172E-2 0
-5.7003205E-4 1.0921201E-2
-1.0702409E-2 -1.199802E-4
-2.0277342E-3 -1.0911277E-2
-2.9661148E-3 -6.120768E-3
-6.2054116E-3 8.38531E-3
2.901784E-3 -1.4060336E-2
3.2394547E-3 3.174626E-3
-1.7397795E-2 -4.6995967E-3
-3.1731133E-3 6.690115E-3
6.0448158E-3 -3.5657745E-3
1.6030923E-2 4.7143213E-3
1.4941122E-3 -1.3079551E-2
-1.11933425E-2 -4.226982E-3
-2.121143E-3 -1.9180059E-4
7.7040205E-3 -6.5699443E-3
-1.4912004E-2 -4.740972E-3
2.3240803E-3 5.314084E-3
-9.242382E-3 -1.6485834E-3
7.879128E-3 -9.118043E-3
2.7018813E-3 -6.142286E-3
1.5031413E-2 3.760091E-3
-8.364068E-3 7.37792E-3
3.3075404E-3 -5.11017E-3
1.0804737E-3 2.8682116E-5
-4.4645066E-3 1.2440092E-3
-1.7102255E-2 -4.2986865E-3
1.35592595E-2 3.0684334E-3
-1.3406664E-2 -1.3989324E-3
1.1946152E-2 4.4563347E-3
-2.4315086E-3 -1.6255212E-3
-1.09169865E-2 1.5237478E-3
-1.089201E-2 4.64108E-3
-4.479337E-3 1.6773483E-2
9.545436E-3 2.3515125E-4
-9.399498E-3 -6.368542E-4
-2.9796143E-3 3.7347658E-3
7.246468E-3 -1.0035374E-2
6.9614E-3 -2.3320972E-3
-1.1303998E-2 8.167398E-4
9.354957E-3 -4.51285E-3
7.5777704E-3 -9.663813E-3
1.15709985E-2 6.199312E-4
1.2898078E-2 2.401978E-3
-1.124569E-2 1.7150365E-3
-9.2739435E-3 1.6144473E-3
1.1878776E-2 0
4.7579512E-4 1.1615967E-2
-1.1720934E-2 2.8173006E-3
-6.4714192E-3 3.5639605E-3
9.447091E-3 6.256414E-3
-1.5415894E-2 -2.3515814E-3
3.2601883E-3 -3.6936572E-3
-4.1127563E-3 1.9137906E-2
7.4365903E-3 3.0631805E-3
-4.2101266E-3 -6.3550808E-3
4.2061172E-3 -1.765606E-2
-1.4272312E-2 -8.801736E-4
-3.951378E-3 1.2381022E-2
-8.7957706E-5 2.311717E-3
-7.5627654E-3 -7.984775E-3
-4.298376E-3 1.644385E-2
5.6327386E-3 -2.8218576E-3
-1.2649818E-3 1.0118784E-2
-1.0336666E-2 -8.030451E-3
-6.8156663E-3 -2.5830397E-3
3.2276292E-3 -1.6517842E-2
8.476568E-3 8.655E-3
-5.7303947E-3 -3.2984493E-3
-3.006121E-5 -1.1736412E-3
1.6021761E-3 4.7723306E-3
-3.6946125E-3 1.879463E-2
2.5607198E-3 -1.4881799E-2
-7.584094E-4 1.4621752E-2
4.157542E-3 -1.3210599E-2
-1.6255786E-3 2.7295512E-3
2.270937E-3 1.1755661E-2
5.650972E-3 1.1552075E-2
1.844823E-2 3.9091823E-3
-2.853618E-4 -1.0367489E-2
-1.5863832E-4 1.023193E-2
4.219893E-3 3.0206111E-3
-1.1295899E-2 -7.2922525E-3
-2.9238197E-3 -7.419171E-3
1.5259396E-3 1.221549E-2
-5.4248543E-3 -9.892055E-3
-1.0911615E-2 -7.6726614E-3
1.7337257E-5 -1.2586454E-2
1.8752327E-3 -1.4126866E-2
2.4970437E-3 1.2101384E-2
2.2762967E-3 9.968276E-3
1.13780275E-2 0
2.2854968E-3 1.157446E-2
3.2259026E-3 6.4709946E-3
6.496391E-3 -8.987485E-3
-2.9170245E-3 1.4980637E-2
-3.4813527E-3 -3.3360051E-3
1.8549759E-2 4.7883186E-3
3.2932765E-3 -7.1493667E-3
-6.3831112E-3 3.8624324E-3
-1.7096957E-2 -4.8202593E-3
-1.4323669E-3 1.39212925E-2
1.1948831E-2 4.359869E-3
2.2570486E-3 1.7860567E-4
-8.111036E-3 7.0756203E-3
1.590787E-2 4.8619215E-3
-2.533811E-3 -5.621145E-3
9.844244E-3 1.6422946E-3
-8.266809E-3 9.786322E-3
-2.798888E-3 6.5614125E-3
-1.6023114E-2 -3.8178295E-3
8.803034E-3 -7.94236E-3
-3.4549998E-3 5.471497E-3
-1.1488791E-3 -1.7613153E-5
4.73092E-3 -1.3755772E-3
1.8230824E-2 4.3656747E-3
-1.4449982E-2 -3.100145E-3
1.4267878E-2 1.3272929E-3
-1.2751795E-2 -4.594698E-3
2.6040506E-3 1.6989437E-3
1.1586536E-2 -1.7498303E-3
1.1522837E-2 -5.0632386E-3
4.561623E-3 -1.7883496E-2
-1.0149545E-2 -1.3621338E-4
9.999201E-3 5.6496053E-4
3.1228065E-3 -4.005542E-3
-7.583364E-3 1.0753899E-2
-7.372137E-3 2.5619634E-3
1.2006352E-2 -1.0028973E-3
-9.890487E-3 4.908615E-3
-7.9399645E-3 1.036288E-2
-1.2307293E-2 -5.2109396E-4
-1.3739207E-2 -2.3995847E-3
1.1933667E-2 -1.9570866E-3
9.838909E-3 -1.8266637E-3
1.223337E-2 0
7.230696E-3 -1.9817704E-3
-7.837719E-3 -8.413855E-3
1.4653322E-2 5.976536E-3
-4.092896E-3 2.8713543E-3
8.597063E-3 -1.7908178E-2
-6.611276E-3 -4.7862204E-3
2.6469429E-3 7.2691543E-3
-8.3377315E-3 1.642388E-2
1.3873912E-2 4.253456E-3
6.835291E-3 -1.1279353E-2
6.3506106E-4 -2.2601383E-3
5.568516E-3 9.672342E-3
8.141263E-3 -1.5205896E-2
-6.227154E-3 1.4484391E-3
3.6480543E-3 -9.68431E-3
8.294725E-3 1.03753E-2
6.1124787E-3 4.1651945E-3
-7.1022934E-3 1.5532855E-2
-6.311218E-3 -1.0550389E-2
4.8719537E-3 4.613703E-3
-2.4869182E-4 1.1651755E-3
-4.4902854E-4 -5.0889067E-3
8.103059E-3 -1.7668633E-2
-6.056224E-3 1.4076724E-2
4.216187E-3 -1.4247589E-2
-7.235467E-3 1.2049011E-2
2.2513485E-3 -2.3077414E-3
5.473402E-4 -1.2138055E-2
-2.836067E-3 -1.2738818E-2
-1.727595E-2 -8.232622E-3
-2.1772976E-3 1.0297407E-2
2.583247E-3 -1.0058344E-2
-3.4474183E-3 -3.98131E-3
9.416291E-3 9.874413E-3
1.125357E-3 8.014031E-3
1.3914963E-3 -1.2415081E-2
3.0066618E-3 1.1047227E-2
8.94689E-3 1.0158626E-2
-3.002248E-3 1.2415094E-2
-5.2007968E-3 1.3494398E-2
4.0623377E-4 -1.2532809E-2
1.18135504E-4 -1.037569E-2
4.59484E-3 0
-3.2695686E-3 -6.242809E-3
7.69286E-3 5.906307E-3
-2.8843114E-3 1.034115E-3
7.982481E-3 -9.192169E-3
-3.1323289E-3 -3.8999668E-3
3.8692873E-4 4.7253277E-3
-7.5887484E-3 8.356865E-3
7.511313E-3 4.7615957E-3
5.8673127E-3 -5.5595143E-3
7.4149715E-4 -1.2330067E-3
1.7244541E-3 6.6190497E-3
7.275313E-3 -7.668786E-3
-3.915285E-3 -1.5266171E-4
3.7250614E-3 -5.133066E-3
3.2219384E-3 7.4761813E-3
2.9381125E-3 3.4520975E-3
-6.7141824E-3 8.030349E-3
-2.021197E-3 -7.2583463E-3
2.1322265E-3 3.516233E-3
-3.357477E-4 6.484051E-4
5.589839E-4 -3.0806072E-3
7.651688E-3 -9.130608E-3
-5.8600004E-3 7.3391437E-3
4.8001013E-3 -7.738217E-3
-6.2285233E-3 5.949603E-3
1.704537E-3 -9.993094E-4
2.2898423E-3 -7.085691E-3
3.8735685E-4 -7.988883E-3
-8.877519E-3 -7.664654E-3
-2.955071E-3 5.7337037E-3
3.1562855E-3 -5.5266395E-3
-1.3926819E-3 -2.9116778E-3
3.965997E-3 7.3618153E-3
-6.330926E-4 4.9191043E-3
2.8336698E-3 -7.112681E-3
-1.2491408E-5 7.016682E-3
3.6425104E-3 7.453761E-3
-3.785728E-3 6.851752E-3
-5.260054E-3 7.13353E-3
2.2703886E-3 -7.341875E-3
1.7506572E-3 -6.113552E-3
1.0808372E-2 0
-1.3498681E-2 6.249179E-3
6.4739404E-4 -4.6546375E-3
6.8088723E-3 1.7386356E-2
7.5275996E-3 -1.4806441E-3
-6.695425E-3 -2.8367168E-3
-5.954152E-3 -1.6257029E-2
-1.1814227E-2 6.8170666E-3
3.3784432E-3 1.1927668E-2
1.1476026E-3 1.8848153E-3
-1.0220092E-2 -2.3670027E-3
5.2423226E-3 1.5341559E-2
2.9934298E-3 -5.2108974E-3
4.3234164E-3 8.713635E-3
-1.2450209E-2 -9.4234786E-4
-6.7808987E-3 1.5354626E-3
-6.1328486E-3 -1.4836455E-2
1.1299831E-2 2.418738E-3
-6.2945895E-3 3.9490327E-4
-6.420506E-4 -9.1755396E-4
3.7877285E-3 2.951547E-3
6.9606192E-3 1.6893119E-2
-5.8015515E-3 -1.318407E-2
7.0979507E-3 1.2028002E-2
-3.6514113E-3 -1.2696007E-2
1.4481401E-4 3.0269627E-3
7.997628E-3 8.153102E-3
1.0578514E-2 6.210966E-3
1.6730642E-2 -6.6075292E-3
-5.687382E-3 -8.09488E-3
5.2628745E-3 8.22092E-3
4.946966E-3 1.7969793E-4
-1.2824277E-2 1.4995174E-4
-6.23288E-3 -4.3604616E-3
7.6473244E-3 8.911182E-3
-9.5243715E-3 -5.009859E-3
-1.2719017E-2 -3.5498233E-4
-6.615352E-3 -1.0019032E-2
-5.9490986E-3 -1.2222639E-2
8.3595365E-3 8.308966E-3
7.0604943E-3 6.7287865E-3
2.0471781E-2 0
-3.499753E-3 5.438912E-3
1.5487685E-3 -2.5650738E-2
-1.0257369E-2 -2.5031127E-3
6.7218496E-3 7.4139605E-3
-1.9632822E-3 2.3746127E-2
1.869639E-2 -1.6831564E-3
2.6769626E-3 -1.6849926E-2
-3.4349016E-4 -3.0174844E-3
1.1395418E-2 8.86522E-3
2.3229874E-3 -2.2191225E-2
-6.7513576E-3 4.7772005E-3
-3.6151177E-4 -1.3382253E-2
1.5004341E-2 8.375363E-3
9.356503E-3 2.0029228E-3
-9.187599E-4 2.207528E-2
-1.2714002E-2 -9.554116E-3
8.089699E-3 3.146204E-3
2.7135215E-4 1.5171625E-3
-3.0240067E-3 -5.876202E-3
1.0740719E-3 -2.5122467E-2
-3.771449E-4 1.9820053E-2
-1.9103551E-3 -1.9125778E-2
-2.7802875E-3 1.7967336E-2
1.5692682E-3 -3.8641314E-3
-5.2743573E-3 -1.4806554E-2
-9.620555E-3 -1.3873216E-2
-2.47154E-2 -1.4211072E-3
2.4227325E-3 1.3398102E-2
-1.8196872E-3 -1.3310073E-2
-6.074416E-3 -3.0846607E-3
1.6103063E-2 7.227459E-3
5.2631744E-3 9.049546E-3
-4.3985536E-3 -1.55507885E-2
8.998481E-3 1.1763657E-2
1.567966E-2 7.7972156E-3
2.4691774E-3 1.6337726E-2
3.6300716E-4 1.870462E-2
-5.636232E-3 -1.5210459E-2
-4.9274736E-3 -1.24858795E-2
2.0433022E-3 0
-7.0796204E-3 3.973647E-3
1.088525E-3 3.153082E-3
8.2059635E-4 -3.0533045E-3
6.6444688E-3 -3.5379168E-3
-3.6434196E-3 -4.6794857E-3
-4.9343035E-3 2.1693674E-3
-7.429594E-4 6.071119E-4
4.0719498E-4 -4.5430716E-3
-6.292858E-3 3.1765325E-3
2.4233777E-3 9.770044E-4
-3.4935751E-3 2.3838086E-3
-3.3991263E-4 -5.4181414E-3
-1.0674071E-3 -2.8282313E-3
6.0219937E-3 -3.5297838E-3
-3.6480124E-4 5.011161E-3
-5.470955E-4 -2.6871182E-3
3.5668843E-4 -3.3145893E-4
-1.0442117E-3 1.8079797E-3
-6.858118E-3 4.0094536E-3
5.3302366E-3 -3.288137E-3
-4.7547235E-3 3.7771873E-3
5.248839E-3 -2.332943E-3
-1.2948909E-3 2.436717E-4
-3.0321053E-3 3.9325375E-3
-2.0411334E-3 4.9276706E-3
3.8476628E-3 6.809296E-3
3.1454095E-3 -2.9341402E-3
-3.2251158E-3 2.7588753E-3
2.1892352E-4 2.14118E-3
-8.3271856E-4 -5.5138078E-3
1.504504E-3 -2.9453773E-3
-3.3795552E-3 3.827086E-3
1.5870158E-3 -4.4017592E-3
-6.089632E-4 -5.4987213E-3
3.9184648E-3 -3.4490232E-3
4.9073575E-3 -3.2940912E-3
-3.07755E-3 4.0977295E-3
-2.4748535E-3 3.4436472E-3
3.2257047E-2 0
2.3603423E-3 -1.3041653E-2
-8.781014E-3 8.98324E-3
-2.9901965E-2 -6.6346873E-4
3.5234161E-3 2.3298873E-2
2.1315148E-2 2.0794205E-3
3.7548624E-3 -6.5867085E-4
-1.024584E-2 1.4948924E-2
2.7980914E-2 1.2318062E-3
-6.4965044E-3 -8.097905E-3
1.6740354E-2 -1.4653864E-3
-9.359031E-3 1.9433772E-2
-1.8017675E-3 1.1875044E-2
-2.7729401E-2 5.188913E-4
1.1009256E-2 -1.66532E-2
-3.3301148E-3 1.0374256E-2
-1.880446E-3 4.5477817E-4
7.1339887E-3 -4.2335787E-3
3.1559214E-2 -5.548206E-4
-2.486267E-2 1.0269076E-3
2.38197E-2 -3.8405755E-3
-2.272306E-2 -2.1243473E-3
4.960402E-3 1.6739258E-3
1.8153295E-2 -7.72884E-3
1.6655035E-2 -1.310393E-2
-8.919525E-5 -3.1075424E-2
-1.6604269E-2 4.0492546E-3
1.6539596E-2 -3.2869906E-3
3.4054667E-3 -7.844491E-3
-7.837606E-3 2.0723607E-2
-1.0940724E-2 7.2792876E-3
1.9152066E-2 -6.687779E-3
-1.4058863E-2 1.2164886E-2
-8.583532E-3 2.0236196E-2
-2.028405E-2 4.3298425E-3
-2.340906E-2 1.8699175E-3
1.8632006E-2 -8.212818E-3
1.5271779E-2 -7.118632E-3
5.4455055E-3 0
-4.2744926E-3 -2.892869E-3
-1.9197711E-3 -1.2138032E-2
-9.162011E-3 3.1293777E-3
7.1897375E-4 8.769958E-3
5.410575E-4 1.4699091E-3
-6.793628E-3 -3.048578E-3
1.5494205E-3 1.140293E-2
2.7986476E-3 -3.2191102E-3
1.8174016E-3 6.660965E-3
-8.54198E-3 -2.3618673E-3
-4.932969E-3 1.4046971E-4
-2.2388308E-3 -1.1173139E-2
7.5385356E-3 3.2325233E-3
-4.4380277E-3 -5.872643E-4
-3.2146636E-4 -7.269944E-4
2.2336675E-3 2.574517E-3
2.533596E-3 1.271892E-2
-2.2344566E-3 -9.976935E-3
3.295717E-3 9.349374E-3
-8.038303E-4 -9.342469E-3
-3.1380786E-4 2.1279964E-3
4.4531305E-3 6.7739086E-3
6.516669E-3 5.774845E-3
1.2557392E-2 -2.309941E-3
-2.8521128E-3 -6.4168773E-3
2.5391942E-3 6.446506E-3
3.420747E-3 8.0283964E-4
-8.952138E-3 -1.6523686E-3
-3.74361E-3 -3.8907323E-3
4.105308E-3 7.2538927E-3
-5.9470404E-3 -4.793915E-3
-8.809657E-3 -1.9896151E-3
-3.2348156E-3 -7.884095E-3
-2.468924E-3 -9.32755E-3
4.6838336E-3 6.9320383E-3
3.9955727E-3 5.653551E-3
4.8921043E-3 0
7.955144E-3 8.507985E-3
5.5293418E-3 -7.323654E-3
-5.2233147E-3 -6.5021007E-3
-1.2055815E-3 -8.663854E-4
6.9522373E-3 -1.2160401E-3
-7.2739203E-3 -8.127707E-3
-4.8670094E-4 4.013619E-3
-4.965153E-3 -4.263101E-3
7.959813E-3 -2.6838728E-3
3.7975493E-3 -2.730852E-3
7.6930043E-3 7.5810878E-3
-7.634678E-3 1.4673752E-3
3.7956433E-3 -1.8966792E-3
6.385459E-4 3.9988427E-4
-3.121021E-3 -8.342744E-4
-8.745563E-3 -8.63787E-3
7.054099E-3 6.6444417E-3
-7.553758E-3 -5.5880486E-3
5.594064E-3 6.9064186E-3
-8.841504E-4 -1.8370948E-3
-7.094089E-3 -2.9515529E-3
-8.1831375E-3 -1.0710964E-3
-8.629891E-3 8.484193E-3
5.6476886E-3 3.5218226E-3
-5.417801E-3 -3.711315E-3
-3.1116428E-3 1.1870415E-3
7.904856E-3 -3.4586925E-3
5.0054877E-3 1.0653064E-3
-7.07605E-3 -3.5130973E-3
7.2148945E-3 6.037167E-4
7.972172E-3 -3.1182761E-3
6.727539E-3 4.47022E-3
6.893167E-3 6.0101426E-3
-7.3591867E-3 -2.9531198E-3
-6.1397473E-3 -2.3151923E-3
2.7732471E-2 0
-3.7453878E-3 -2.1525357E-2
-1.9801704E-2 -1.4891883E-3
-3.4671728E-3 6.8781216E-4
9.190321E-3 -1.4068243E-2
-2.5963368E-2 -5.663568E-4
6.188755E-3 7.373057E-3
-1.54880015E-2 1.7027169E-3
8.276012E-3 -1.8207414E-2
1.4259729E-3 -1.1045108E-2
2.5694208E-2 -1.0513512E-3
-9.862946E-3 1.5663793E-2
2.8736044E-3 -9.685328E-3
1.733801E-3 -4.6025225E-4
-6.5260604E-3 4.071219E-3
-2.924367E-2 1.1634289E-3
2.3026329E-2 -1.4633131E-3
-2.2001633E-2 4.050104E-3
2.1107746E-2 1.5018772E-3
-4.6326737E-3 -1.4496862E-3
-1.6668957E-2 7.5379387E-3
-1.5169529E-2 1.2489777E-2
7.218487E-4 2.8804777E-2
1.5308709E-2 -4.0951385E-3
-1.5264434E-2 3.3871979E-3
-2.9954868E-3 7.34181E-3
6.839135E-3 -1.9371787E-2
9.992222E-3 -6.9728587E-3
-1.761622E-2 6.593428E-3
1.2782219E-2 -1.1565895E-2
7.540628E-3 -1.89353E-2
1.8714055E-2 -4.430927E-3
2.1661507E-2 -2.2148772E-3
-1.7102763E-2 7.996428E-3
-1.4010372E-2 6.9130147E-3
1.7213356E-2 0
3.8301803E-3 -1.5168542E-2
-6.5608845E-5 -2.7840382E-3
9.678281E-3 9.033307E-3
3.946056E-3 -2.0075727E-2
-6.558628E-3 3.8078178E-3
7.701069E-4 -1.2251417E-2
1.3014498E-2 8.882653E-3
8.380395E-3 2.5984982E-3
-2.654076E-3 2.008529E-2
-1.0825872E-2 -9.770872E-3
7.129454E-3 3.5384756E-3
1.2308088E-4 1.4078986E-3
-2.2786218E-3 -5.615225E-3
3.0464528E-3 -2.2855444E-2
-1.9740104E-3 1.8070174E-2
-1.7219115E-4 -1.7624184E-2
-4.016416E-3 1.618055E-2
1.750878E-3 -3.3999968E-3
-3.5995753E-3 -1.3956122E-2
-7.6455916E-3 -1.3461065E-2
-2.2455147E-2 -3.3299234E-3
1.1110541E-3 1.2435362E-2
-5.675443E-4 -1.2305385E-2
-5.2940045E-3 -3.3165764E-3
1.4112315E-2 7.924634E-3
4.0626936E-3 8.697465E-3
-2.7385345E-3 -1.4563807E-2
7.2509106E-3 1.148331E-2
1.3678785E-2 8.410168E-3
9.117795E-4 1.5123869E-2
-1.2063375E-3 1.711233E-2
-3.8968576E-3 -1.4354753E-2
-3.4735762E-3 -1.1808186E-2
1.4218898E-2 0
2.438717E-3 -6.7729724E-4
-5.806686E-3 1.0538596E-2
1.8568931E-2 -9.897974E-4
-4.8148525E-3 -4.9322275E-3
1.0967402E-2 -2.0474647E-3
-4.931579E-3 1.3444975E-2
-4.2507728E-4 7.963066E-3
-1.8289877E-2 2.1304283E-3
6.20128E-3 -1.171398E-2
-1.5317418E-3 7.069883E-3
-1.2132641E-3 4.217343E-4
4.4411584E-3 -3.2573945E-3
2.0818267E-2 -2.401057E-3
-1.6362818E-2 2.2813194E-3
1.5492252E-2 -4.073331E-3
-1.5152127E-2 6.1072446E-5
3.3856947E-3 7.863467E-4
1.1497294E-2 -6.2773796E-3
1.0160756E-2 -9.732604E-3
-2.0621878E-3 -2.0528596E-2
-1.0710912E-2 3.7460881E-3
1.0717316E-2 -3.238222E-3
1.7446124E-3 -5.4030954E-3
-3.843087E-3 1.4199208E-2
-6.760275E-3 5.515368E-3
1.2224381E-2 -5.6538414E-3
-8.505765E-3 8.944733E-3
-4.367409E-3 1.3925216E-2
-1.3124388E-2 4.1687107E-3
-1.5347943E-2 2.7446677E-3
1.1782421E-2 -6.6280477E-3
9.632551E-3 -5.688406E-3
4.5053224E-4 0
-1.4979097E-3 1.5309064E-3
3.231949E-3 7.1474246E-4
-5.9086713E-4 -1.0752869E-3
1.9785732E-3 1.7125125E-4
-1.4862592E-3 2.0710707E-3
-4.5221546E-4 1.3455163E-3
-3.2384198E-3 -5.058176E-4
1.6215751E-3 -1.7137033E-3
-5.994766E-4 1.1396102E-3
-2.2817853E-4 1.454053E-5
9.168751E-4 -3.4713518E-4
3.6849612E-3 5.79838E-4
-2.9150934E-3 -3.881453E-4
2.8511405E-3 3.9324914E-5
-2.6016864E-3 -7.112757E-4
5.432321E-4 2.96141E-4
2.2709423E-3 -5.2899093E-4
2.2062946E-3 -1.1852687E-3
6.241601E-4 -3.619138E-3
-2.0154938E-3 1.3230118E-4
1.9924003E-3 -4.4890963E-5
5.5659143E-4 -8.435956E-4
-1.3354964E-3 2.25228E-3
-1.4221878E-3 6.239377E-4
2.3659456E-3 -3.8741253E-4
-1.8849139E-3 1.1289723E-3
-1.4123728E-3 2.1803116E-3
-2.4495658E-3 8.982388E-5
-2.7631004E-3 -2.6033324E-4
2.3365489E-3 -5.7555316E-4
1.9230611E-3 -5.16799E-4
1.0182195E-2 0
-8.31675E-3 -1.33584915E-2
-1.6893309E-3 5.5828295E-3
-5.996362E-3 -7.292551E-3
1.1978936E-2 -1.8355026E-3
6.0755643E-3 -2.9368873E-3
9.048191E-3 1.2685856E-2
-1.1214496E-2 1.8754027E-4
5.865503E-3 -1.7519066E-3
8.0804655E-4 7.270058E-4
-4.2279493E-3 -1.9613975E-3
-1.028131E-2 -1.4449299E-2
8.3730575E-3 1.1195961E-2
-9.34572E-3 -9.818908E-3
6.2330607E-3 1.1205336E-2
-7.998282E-4 -2.8304963E-3
-9.347837E-3 -5.9578856E-3
-1.1362927E-2 -3.556249E-3
-1.4372993E-2 9.911857E-3
7.150583E-3 6.408769E-3
-6.7767836E-3 -6.6209156E-3
-4.717064E-3 9.1345416E-4
1.2093436E-2 -2.9502704E-3
6.8485644E-3 2.7581463E-3
-9.182617E-3 -6.7514195E-3
1.01031205E-2 2.651371E-3
1.2104481E-2 -2.4497672E-3
8.449429E-3 8.02497E-3
8.302023E-3 1.0254547E-2
-9.724181E-3 -6.0260077E-3
-8.149789E-3 -4.8163217E-3
2.4318682E-2 0
-5.9445365E-3 -6.776329E-3
1.4465221E-2 -1.9103955E-3
-7.376235E-3 1.7214943E-2
-1.109443E-3 1.0369642E-2
-2.4033658E-2 1.5090143E-3
8.913883E-3 -1.4865995E-2
-2.492497E-3 9.126169E-3
-1.6137995E-3 4.6629983E-4
6.0266084E-3 -3.9447844E-3
2.7354404E-2 -1.6864302E-3
-2.1527553E-2 1.8402124E-3
2.0515397E-2 -4.2410614E-3
-1.9791916E-2 -9.750045E-4
4.3667527E-3 1.262599E-3
1.5451674E-2 -7.3974966E-3
1.394677E-2 -1.2002827E-2
-1.2640562E-3 -2.6952526E-2
-1.4248507E-2 4.146539E-3
1.4221514E-2 -3.4828542E-3
2.6544644E-3 -6.9346367E-3
-6.0072416E-3 1.8275693E-2
-9.212401E-3 6.7321104E-3
1.6357798E-2 -6.5325825E-3
-1.1730617E-2 1.1089127E-2
-6.6728992E-3 1.788138E-2
-1.7429765E-2 4.5304513E-3
-2.0234449E-2 2.5159605E-3
1.5848443E-2 -7.835597E-3
1.2975447E-2 -6.7581437E-3
3.3413055E-3 0
-3.0035987E-3 4.497674E-3
-2.9938226E-3 -6.263442E-3
-2.618274E-3 -2.843931E-3
5.454382E-3 -7.065776E-3
1.9634273E-3 6.1177183E-3
-1.9337059E-3 -2.9253566E-3
2.6454922E-4 -5.6366425E-4
-3.7396085E-4 2.6435722E-3
-6.2166792E-3 8.03446E-3
4.749494E-3 -6.4484156E-3
-3.8330904E-3 6.753253E-3
5.1096817E-3 -5.276626E-3
-1.4192424E-3 9.081488E-4
-1.7157665E-3 6.1138305E-3
-6.464126E-5 6.8202354E-3
7.819232E-3 6.2361364E-3
2.3275302E-3 -4.9838973E-3
-2.5058654E-3 4.8141424E-3
1.2834503E-3 2.4347831E-3
-3.6240385E-3 -6.1412696E-3
3.76026E-4 -4.2126263E-3
-2.1782676E-3 6.1548967E-3
-2.2248247E-4 -5.979363E-3
-3.3514488E-3 -6.230365E-3
2.9981905E-3 -5.9641902E-3
4.245108E-3 -6.253278E-3
-1.6906782E-3 6.3314796E-3
-1.2886231E-3 5.267552E-3
8.754266E-3 0
-5.7398756E-3 9.660328E-3
-1.4745229E-3 6.0809082E-3
-1.4414226E-2 -9.904142E-4
6.4699724E-3 -8.142334E-3
-2.1995069E-3 5.232618E-3
-9.965498E-4 1.5058935E-4
3.8946318E-3 -1.8730032E-3
1.6403407E-2 1.1457509E-3
-1.2949564E-2 -5.965402E-4
1.2536117E-2 -9.1104244E-4
-1.169602E-2 -2.134739E-3
2.4982425E-3 1.094056E-3
9.772076E-3 -3.18634E-3
9.23871E-3 -6.0439E-3
1.3654176E-3 -1.6131181E-2
-8.801024E-3 1.3471252E-3
8.732832E-3 -9.5447333E-4
2.1236888E-3 -3.9163292E-3
-5.008901E-3 1.0398826E-2
-6.008565E-3 3.2806927E-3
1.0243111E-2 -2.600691E-3
-7.848722E-3 5.6745065E-3
-5.3738705E-3 1.0111988E-2
-1.0723457E-2 1.3255746E-3
-1.2233485E-2 -9.301001E-5
1.0042496E-2 -3.4157622E-3
8.248943E-3 -3.000565E-3
1.4423608E-2 0
7.6770736E-3 -2.3599109E-3
8.357997E-3 1.655547E-2
-1.3227203E-2 -1.8009582E-3
7.2163334E-3 -1.0036964E-3
8.1957923E-4 1.0009558E-3
-4.620436E-3 -3.069659E-3
-9.490824E-3 -1.885238E-2
7.832309E-3 1.4680967E-2
-9.224843E-3 -1.3236258E-2
5.3130016E-3 1.4306228E-2
-4.307232E-4 -3.474145E-3
-9.923343E-3 -8.694304E-3
-1.27269495E-2 -6.23213E-3
-1.8696008E-2 9.069934E-3
7.2570858E-3 8.8286605E-3
-6.7790826E-3 -9.010859E-3
-5.714098E-3 2.2431553E-4
1.4759266E-2 -1.2908388E-3
7.5598555E-3 4.4794087E-3
-9.585923E-3 -9.598081E-3
1.14079565E-2 4.9404777E-3
1.4682038E-2 -7.0002535E-4
8.493778E-3 1.0964192E-2
7.918445E-3 1.3560627E-2
-1.0353818E-2 -8.842289E-3
-8.719675E-3 -7.1353344E-3
4.4722953E-3 0
1.7398923E-3 1.0179262E-2
-6.7456155E-3 -3.122735E-3
4.0051667E-3 6.4647157E-4
2.7245638E-4 6.668613E-4
-1.9570214E-3 -2.3898191E-3
-1.96704E-3 -1.1587157E-2
1.7667867E-3 9.095534E-3
-2.7443483E-3 -8.554415E-3
4.8717874E-4 8.48388E-3
3.391647E-4 -1.9196123E-3
-3.8592601E-3 -6.2512113E-3
-5.7543474E-3 -5.399411E-3
-1.1435062E-2 1.7686025E-3
2.418142E-3 5.8864853E-3
-2.1339112E-3 -5.905254E-3
-3.0780726E-3 -8.155154E-4
8.06693E-3 1.7277709E-3
3.2908937E-3 3.6211007E-3
-3.531794E-3 -6.6770464E-3
5.2636364E-3 4.496113E-3
7.929159E-3 2.0296E-3
2.7269765E-3 7.225479E-3
1.9959372E-3 8.513317E-3
-4.06417E-3 -6.400409E-3
-3.4736681E-3 -5.2245003E-3
2.384561E-2 0
-9.731867E-3 1.4138638E-2
3.0295772E-3 -8.8645425E-3
1.6238196E-3 -3.606958E-4
-6.200754E-3 3.5245891E-3
-2.7138446E-2 -3.0720235E-5
2.138943E-2 -4.8282457E-4
-2.0538112E-2 2.9183396E-3
1.9499447E-2 2.1916984E-3
-4.2372257E-3 -1.518765E-3
-1.57296E-2 6.351992E-3
-1.4528102E-2 1.0996728E-2
-4.2320704E-4 2.6715068E-2
1.4338808E-2 -3.2137963E-3
-1.4270949E-2 2.5595657E-3
-3.0536582E-3 6.688646E-3
7.0708706E-3 -1.7688736E-2
9.522165E-3 -6.0815625E-3
-1.6571434E-2 5.4409895E-3
1.2281226E-2 -1.0231252E-2
7.7042584E-3 -1.7257737E-2
1.7506601E-2 -3.3958075E-3
2.0153409E-2 -1.2308912E-3
-1.6148904E-2 6.7603383E-3
-1.3242723E-2 5.873787E-3
1.23549085E-2 0
-6.4924317E-3 1.8214865E-3
-8.765783E-4 -8.155948E-4
4.620465E-3 2.238122E-3
1.1057525E-2 1.6103577E-2
-9.015731E-3 -1.2485258E-2
1.0112367E-2 1.0986511E-2
-6.658602E-3 -1.2456168E-2
8.2878384E-4 3.1321917E-3
1.0185812E-2 6.7340857E-3
1.2449433E-2 4.12608E-3
1.6012728E-2 -1.0652021E-2
-7.7574905E-3 -7.190211E-3
7.341887E-3 7.416981E-3
5.2121184E-3 -9.1918174E-4
-1.3373842E-2 3.0266354E-3
-7.4920906E-3 -3.163915E-3
9.989226E-3 7.605028E-3
-1.107857E-2 -3.1062586E-3
-1.337679E-2 2.475186E-3
-9.158248E-3 -8.99419E-3
-8.954833E-3 -1.14470925E-2
1.0599056E-2 6.8160463E-3
8.887329E-3 5.454721E-3
3.6802772E-3 0
3.4039345E-4 5.578244E-4
-2.0980604E-3 -1.857316E-3
-3.436511E-3 -1.0092548E-2
2.8970088E-3 7.890121E-3
-3.6942458E-3 -7.2642146E-3
1.6626408E-3 7.5273225E-3
2.625859E-5 -1.7681362E-3
-4.359777E-3 -5.040419E-3
-5.933796E-3 -4.003653E-3
-9.985024E-3 3.2368149E-3
3.0164616E-3 4.9221017E-3
-2.7646315E-3 -4.9799955E-3
-2.8744526E-3 -2.8539897E-4
7.474093E-3 3.812291E-4
3.4705931E-3 2.7671792E-3
-4.128069E-3 -5.469111E-3
5.3637675E-3 3.2656363E-3
7.3943418E-3 6.714473E-4
3.4865907E-3 6.0765967E-3
3.0180651E-3 7.335593E-3
-4.5648515E-3 -5.144413E-3
-3.8660485E-3 -4.176684E-3
1.1603359E-4 0
-4.7556806E-4 1.4622025E-4
-1.8475879E-3 -4.1259616E-4
1.4638639E-3 2.9066385E-4
-1.4427318E-3 -1.11934765E-4
1.2947057E-3 4.442029E-4
-2.6557E-4 -1.6751721E-4
-1.167224E-3 1.9462241E-4
-1.1556632E-3 5.290902E-4
-4.3291936E-4 1.8128201E-3
1.0250458E-3 -1.9575507E-6
-1.0105286E-3 -4.156727E-5
-3.0912008E-4 4.0928763E-4
7.4907165E-4 -1.0975975E-3
7.404244E-4 -2.7010244E-4
-1.2107706E-3 1.1985185E-4
9.910783E-4 -5.1095034E-4
7.8568415E-4 -1.058667E-3
1.2435168E-3 3.3565062E-5
1.39101E-3 2.2102616E-4
-1.2019541E-3 2.1608712E-4
-9.906412E-4 1.9967521E-4
2.133394E-3 0
7.0524747E-3 4.019288E-3
-5.6334203E-3 -3.0359915E-3
5.772037E-3 2.276834E-3
-4.7466364E-3 -3.452112E-3
8.7735115E-4 1.0212349E-3
5.0291666E-3 6.7321555E-4
5.403265E-3 -7.1218197E-4
4.0587704E-3 -6.884367E-3
-4.2036558E-3 -1.2836929E-3
4.089309E-3 1.4437874E-3
1.7827061E-3 -1.2879418E-3
-4.4532414E-3 3.5545996E-3
-3.3750285E-3 1.7397568E-4
5.1134215E-3 1.0345409E-3
-4.7058486E-3 8.4523746E-4
-4.5542405E-3 3.3489037E-3
-5.0543034E-3 -1.704591E-3
-5.42258E-3 -2.658772E-3
5.1985583E-3 6.290068E-4
4.3118023E-3 4.2998468E-4
3.0886026E-2 0
-2.434247E-2 5.770539E-4
2.3370456E-2 -3.347793E-3
-2.2194946E-2 -2.4692279E-3
4.8243003E-3 1.7230321E-3
1.7893514E-2 -7.2494023E-3
1.6520118E-2 -1.253398E-2
4.47232E-4 -3.0404693E-2
-1.631471E-2 3.676062E-3
1.6238324E-2 -2.9314016E-3
3.4667202E-3 -7.616214E-3
-8.024497E-3 2.014048E-2
-1.0829244E-2 6.933632E-3
1.885277E-2 -6.2136846E-3
-1.3963958E-2 1.1659906E-2
-8.745904E-3 1.9650782E-2
-1.9919712E-2 3.8872878E-3
-2.2934806E-2 1.4268298E-3
1.8370192E-2 -7.7146776E-3
1.5063842E-2 -6.701959E-3
1.9196019E-2 0
-1.8481703E-2 2.2018864E-3
1.7446559E-2 2.3607688E-3
-3.7700254E-3 -1.4481219E-3
-1.4238012E-2 5.3792233E-3
-1.3254319E-2 9.569863E-3
-9.205414E-4 2.3954755E-2
1.2926933E-2 -2.592433E-3
-1.2852818E-2 2.0069645E-3
-2.874552E-3 5.937862E-3
6.7007076E-3 -1.5723564E-2
8.664488E-3 -5.2623358E-3
-1.4974687E-2 4.5450116E-3
1.12233795E-2 -8.928729E-3
7.260126E-3 -1.5324136E-2
1.577212E-2 -2.6915548E-3
1.8102461E-2 -6.960402E-4
-1.4622393E-2 5.737018E-3
-1.19976085E-2 5.0006285E-3
1.8046541E-2 0
-1.6526554E-2 -4.274135E-3
3.4636294E-3 1.8266772E-3
1.4325219E-2 -3.5458775E-3
1.3858819E-2 -7.6934122E-3
3.6340249E-3 -2.295777E-2
-1.2743268E-2 1.0131763E-3
1.2604754E-2 -4.579953E-4
3.4486903E-3 -5.387178E-3
-8.254941E-3 1.4369859E-2
-8.945688E-3 4.0726536E-3
1.4938794E-2 -2.658208E-3
-1.1829914E-2 7.309095E-3
-8.747726E-3 1.3921125E-2
-1.5493949E-2 7.822513E-4
-1.7508682E-2 -1.4063092E-3
1.4736337E-2 -3.846268E-3
1.2124756E-2 -3.438358E-3
1.614687E-2 0
-3.604531E-3 -8.524989E-4
-1.2278859E-2 6.640001E-3
-1.0869442E-2 1.0327742E-2
2.1093632E-3 2.1884808E-2
1.14299925E-2 -3.94595E-3
-1.1434633E-2 3.4047242E-3
-1.8823238E-3 5.750224E-3
4.156308E-3 -1.5114639E-2
7.2276616E-3 -5.8483225E-3
-1.3050988E-2 5.9724147E-3
9.102444E-3 -9.4952695E-3
4.713866E-3 -1.4820411E-2
1.4003688E-2 -4.385946E-3
1.6367063E-2 -2.8588867E-3
-1.2584206E-2 7.01246E-3
-1.0289199E-2 6.02038E-3
8.49663E-4 0
2.3904897E-3 -2.1305555E-3
1.88116E-3 -2.8793726E-3
-1.6263238E-3 -4.7740666E-3
-2.3432309E-3 1.4843346E-3
2.3728416E-3 -1.3637595E-3
1.16606745E-4 -1.3830259E-3
-1.2982861E-4 3.5935405E-3
-1.3046889E-3 1.6871402E-3
2.598102E-3 -2.0222934E-3
-1.5306578E-3 2.600245E-3
-2.698288E-4 3.5572962E-3
-2.8945368E-3 1.7184385E-3
-3.5027463E-3 1.5023251E-3
2.4389892E-3 -2.229822E-3
1.979044E-3 -1.887188E-3
1.2067971E-2 0
1.25126755E-2 -3.3839245E-3
7.3955245E-3 -1.7509686E-2
-1.0314592E-2 -1.699611E-3
1.0095555E-2 2.113094E-3
3.7960468E-3 -3.5986884E-3
-9.3761785E-3 9.784721E-3
-7.90124E-3 1.4751493E-3
1.2380609E-2 8.2518475E-4
-1.0826631E-2 3.477506E-3
-9.679179E-3 9.331695E-3
-1.245269E-2 -2.4233854E-3
-1.36219505E-2 -4.5565143E-3
1.2453337E-2 -1.576692E-4
1.0300135E-2 -3.4700957E-4
1.3922639E-2 0
1.257786E-2 -1.6081173E-2
-1.0218104E-2 -4.654509E-3
9.875054E-3 5.0218096E-3
4.945023E-3 -2.6668676E-3
-1.2465379E-2 7.516157E-3
-8.60604E-3 -6.8604207E-4
1.2605448E-2 4.3271827E-3
-1.2200705E-2 5.69806E-4
-1.2652514E-2 6.9614733E-3
-1.2232041E-2 -6.0044886E-3
-1.2846247E-2 -8.544091E-3
1.29564535E-2 3.3285038E-3
1.07769985E-2 2.5284167E-3
2.9937336E-2 0
-3.8550114E-3 -1.600723E-2
3.1208496E-3 1.5942816E-2
7.547719E-3 3.3024107E-3
-1.99428E-2 -7.6078065E-3
-6.9823842E-3 -1.05600795E-2
6.389838E-3 1.846899E-2
-1.1680394E-2 -1.3577504E-2
-1.947118E-2 -8.325062E-3
-4.115145E-3 -1.9552989E-2
-1.7366903E-3 -2.2556724E-2
7.860451E-3 1.79722E-2
6.815639E-3 1.4732037E-2
9.055331E-3 0
-8.926352E-3 -3.8425523E-4
-2.737685E-3 3.6104498E-3
6.635848E-3 -9.683588E-3
6.545498E-3 -2.373605E-3
-1.0698022E-2 1.03835E-3
8.76385E-3 -4.4970377E-3
6.958629E-3 -9.339056E-3
1.0984715E-2 3.174935E-4
1.2284514E-2 1.9760218E-3
-1.0621761E-2 1.8886452E-3
-8.754736E-3 1.7472268E-3
8.815517E-3 0
2.5454846E-3 -3.6751959E-3
-6.1304164E-3 9.827247E-3
-6.351546E-3 2.6175494E-3
1.0501584E-2 -1.4775222E-3
-8.448194E-3 4.804871E-3
-6.4632185E-3 9.501319E-3
-1.0841728E-2 1.5315581E-4
-1.2193391E-2 -1.4265932E-3
1.0390328E-2 -2.3124705E-3
8.555897E-3 -2.0938404E-3
2.2672021E-3 0
-5.8671483E-3 2.818466E-4
-2.9252705E-3 -1.892146E-3
3.6483174E-3 3.951484E-3
-4.4425745E-3 -2.13465E-3
-5.827365E-3 4.8989445E-5
-3.194405E-3 -4.4757016E-3
-2.9260996E-3 -5.4953643E-3
3.9642826E-3 3.6640093E-3
3.343443E-3 2.962363E-3
1.5218256E-2 0
7.3348996E-3 5.260219E-3
-8.950021E-3 -1.0679333E-2
1.1231287E-2 6.076403E-3
1.50863575E-2 5.976508E-4
7.710202E-3 1.1979494E-2
6.8891123E-3 1.4584861E-2
-9.8034255E-3 -9.974676E-3
-8.284018E-3 -8.08175E-3
5.3534815E-3 0
-8.005065E-3 -2.0536366E-3
7.5135794E-3 -9.534091E-4
7.4779065E-3 -4.926571E-3
7.8569E-3 3.1088348E-3
8.3617E-3 4.6483804E-3
-8.172822E-3 -1.4190247E-3
-6.786205E-3 -1.0318577E-3
1.275777E-2 0
-1.0869325E-2 4.3079E-3
-9.291847E-3 1.0235288E-2
-1.2941001E-2 -1.6346762E-3
-1.4286412E-2 -3.7431153E-3
1.27651775E-2 -1.0132891E-3
1.0543246E-2 -1.0603026E-3
1.0715057E-2 0
1.13725765E-2 -5.5826628E-3
1.0473455E-2 5.762477E-3
1.090776E-2 8.013122E-3
-1.1217792E-2 -3.4471021E-3
-9.340634E-3 -2.6567709E-3
1.4979074E-2 0
8.113834E-3 1.1572871E-2
7.402179E-3 1.4187902E-2
-1.0110182E-2 -9.503224E-3
-8.529604E-3 -7.6863742E-3
1.3336317E-2 0
1.497121E-2 1.9663312E-3
-1.281868E-2 2.6634666E-3
-1.0558812E-2 2.426456E-3
1.7096441E-2 0
-1.3997409E-2 4.8799897E-3
-1.14954505E-2 4.280725E-3
1.2853068E-2 0
1.0633581E-2 -2.2351844E-4
8.801247E-3 0
