%%MatrixMarket matrix array complex hermitian
%
81 81
1.4708746E-3 0
4.9142167E-3 7.476458E-4
-6.2966263E-3 -1.2367919E-4
2.9585476E-3 4.0377682E-4
3.462816E-3 -5.944799E-4
4.636645E-3 3.5846303E-4
2.0594217E-4 -7.6956085E-6
-2.1284618E-3 -3.6484722E-4
7.02415E-3 5.622901E-5
-1.3698778E-3 -2.3136252E-4
-7.1703964E-3 3.064322E-4
-2.2424757E-3 -2.1513371E-4
5.995552E-3 8.5183117E-4
-3.7525943E-3 -2.622978E-3
1.717351E-3 5.8960647E-4
-6.2965555E-3 -4.9152866E-4
-1.7817321E-3 -5.6357175E-4
7.450014E-4 1.6229118E-4
3.972944E-3 4.887046E-4
-4.387585E-3 -1.5343379E-3
-8.668084E-4 2.2413346E-4
4.4421763E-3 5.2060805E-6
3.216566E-3 3.355739E-3
4.267236E-3 -3.3929525E-4
6.1533377E-3 4.526629E-4
-1.5535342E-3 3.9631128E-4
-4.95437E-3 -3.7353218E-4
5.5016936E-3 3.7614067E-4
-4.6222364E-3 -1.9990989E-4
-2.2516372E-3 -1.21065525E-4
-6.491857E-3 -6.6069234E-4
-2.644121E-3 -1.1152655E-3
-1.9839497E-3 -2.2596827E-5
2.19142E-3 3.3884431E-4
-5.8298595E-3 -8.1714755E-4
3.4968194E-3 1.633667E-4
-2.9448234E-3 -3.577035E-4
2.9749677E-3 1.0013442E-3
-4.8015914E-3 -5.1176996E-4
3.3094848E-3 4.9899344E-4
-5.786052E-4 -1.8704773E-3
-7.012954E-3 -9.660874E-5
2.5547943E-3 3.0125317E-4
-5.558589E-3 -9.06279E-4
-4.3487004E-3 -5.8937218E-5
4.746362E-3 5.465747E-4
1.9699116E-3 -8.430063E-4
6.070643E-3 6.5491244E-4
3.308548E-3 1.710198E-4
3.4207704E-3 3.0971118E-3
-3.381162E-3 -8.3244056E-4
-4.9799164E-3 -5.695116E-4
-5.27435E-3 -1.0290845E-4
1.1516735E-3 1.1811597E-4
6.242125E-3 4.8729763E-4
4.834391E-4 7.512565E-4
1.759209E-4 -1.1373662E-4
4.9936473E-3 7.6052675E-4
-3.5055343E-3 -2.1694247E-3
-4.825444E-3 -8.282648E-6
3.1066085E-3 2.6808164E-4
6.2863114E-3 3.9165755E-4
2.8619126E-3 2.1547655E-4
6.2149456E-3 3.6691988E-4
4.26263E-3 1.884304E-3
-1.5374279E-3 -3.811612E-4
-1.8307922E-3 2.66251E-4
-2.1549915E-3 -3.913417E-3
3.6497712E-3 1.2407899E-3
-4.010206E-3 -1.7448542E-4
5.1539868E-5 -6.115932E-4
-6.755851E-3 -2.2740048E-4
1.818357E-3 2.8077923E-4
-1.6682544E-3 -2.1184285E-3
-7.048403E-3 -2.2514636E-5
-1.956571E-3 -7.610393E-4
3.1405776E-3 5.3245337E-3
-3.8056786E-3 -1.5047753E-3
-4.75227E-3 -5.297727E-4
4.0396727E-3 1.4517376E-3
-1.5156684E-3 -2.9599102E-4
1.679851E-2 0
-2.1099998E-2 2.7873619E-3
1.0089796E-2 -1.5480487E-4
1.1267151E-2 -3.7463175E-3
1.5673315E-2 -1.1591762E-3
6.841445E-4 -1.3039159E-4
-7.296679E-3 -1.3706293E-4
2.3496382E-2 -3.3825159E-3
-4.6943864E-3 -7.66768E-5
-2.3800652E-2 4.6685073E-3
-7.6015014E-3 4.2108513E-4
2.0464225E-2 -2.0155824E-4
-1.387074E-2 -6.8559693E-3
6.0373954E-3 1.0969553E-3
-2.1286743E-2 1.5583338E-3
-6.2392596E-3 -9.772478E-4
2.5715546E-3 1.6353326E-4
1.3522079E-2 -3.8667725E-4
-1.54388985E-2 -2.8960386E-3
-2.782094E-3 1.1894323E-3
1.484403E-2 -2.2405654E-3
1.2452324E-2 9.576599E-3
1.40844425E-2 -3.302628E-3
2.0788494E-2 -1.6153889E-3
-4.9889386E-3 2.1137444E-3
-1.67425E-2 1.2703293E-3
1.8572442E-2 -1.5398199E-3
-1.5544584E-2 1.681581E-3
-7.584295E-3 7.4002554E-4
-2.2025231E-2 1.0924282E-3
-9.400941E-3 -2.3821134E-3
-6.6398946E-3 9.329457E-4
7.493805E-3 1.8185136E-5
-1.9893015E-2 2.332154E-4
1.1765971E-2 -1.2316225E-3
-1.0020524E-2 3.0176085E-4
1.04484E-2 1.8333312E-3
-1.630233E-2 7.30818E-4
1.1310682E-2 -1.5066428E-5
-2.8838937E-3 -5.955191E-3
-2.34795E-2 3.2419143E-3
8.688738E-3 -2.9211084E-4
-1.9032001E-2 -2.0246208E-4
-1.4559039E-2 2.013535E-3
1.61355E-2 -5.864616E-4
6.153008E-3 -3.8178046E-3
2.0615011E-2 -8.976349E-4
1.1140842E-2 -1.1103558E-3
1.3003115E-2 8.608723E-3
-1.1719648E-2 -1.0625527E-3
-1.6927466E-2 6.28544E-4
-1.7673997E-2 2.3371337E-3
3.907799E-3 -1.9076846E-4
2.1102738E-2 -1.544804E-3
1.997042E-3 2.2642284E-3
5.299423E-4 -4.6941655E-4
1.7070435E-2 2.6606192E-6
-1.2814769E-2 -5.4662195E-3
-1.6126098E-2 2.4251014E-3
1.0515496E-2 -6.834246E-4
2.1201752E-2 -1.8867982E-3
9.671223E-3 -7.347999E-4
2.0950742E-2 -1.9331723E-3
1.5199309E-2 4.128795E-3
-5.3303167E-3 -4.919913E-4
-5.9813717E-3 1.820141E-3
-9.189052E-3 -1.1979409E-2
1.2824641E-2 2.2903201E-3
-1.34868575E-2 1.4554295E-3
-1.3867732E-4 -2.0695406E-3
-2.2687E-2 2.674252E-3
6.2178816E-3 1.3816947E-5
-6.650463E-3 -6.229731E-3
-2.3560274E-2 3.5074828E-3
-6.9237724E-3 -1.5481198E-3
1.3199183E-2 1.6193E-2
-1.3479712E-2 -3.093052E-3
-1.6146695E-2 6.456005E-4
1.4234531E-2 2.796913E-3
-5.2143256E-3 -2.1849644E-4
2.6965447E-2 0
-1.2699113E-2 -1.4797456E-3
-1.4773883E-2 2.8360644E-3
-1.9879023E-2 -1.1446598E-3
-8.809649E-4 5.0260645E-5
9.14235E-3 1.3828913E-3
-3.0074213E-2 3.499201E-4
5.883726E-3 8.7524636E-4
3.0669779E-2 -1.9147231E-3
9.61784E-3 7.324001E-4
-2.5737815E-2 -3.1424405E-3
1.628493E-2 1.0913094E-2
-7.401337E-3 -2.3796253E-3
2.6996078E-2 1.5747218E-3
7.674754E-3 2.2627604E-3
-3.202902E-3 -6.3210394E-4
-1.7048756E-2 -1.7580154E-3
1.8911704E-2 6.199372E-3
3.6918488E-3 -1.0323725E-3
-1.9016825E-2 3.5123588E-4
-1.4051878E-2 -1.4095021E-2
-1.823896E-2 1.8112917E-3
-2.6379716E-2 -1.4203849E-3
6.617157E-3 -1.8271873E-3
2.124043E-2 1.1824527E-3
-2.3583673E-2 -1.147598E-3
1.980401E-2 4.671261E-4
9.649149E-3 3.289363E-4
2.7846359E-2 2.2824677E-3
1.14129195E-2 4.5519755E-3
8.494934E-3 -7.008755E-5
-9.40968E-3 -1.2662822E-3
2.5025591E-2 3.0078967E-3
-1.4983172E-2 -4.0532084E-4
1.2636487E-2 1.2836659E-3
-1.2819653E-2 -4.036475E-3
2.0598028E-2 1.7870766E-3
-1.4209438E-2 -1.8578471E-3
2.6342147E-3 7.958621E-3
3.002968E-2 -1.7611816E-4
-1.0962077E-2 -1.0748052E-3
2.3871813E-2 3.4122672E-3
1.8621186E-2 -1.1335967E-4
-2.0364527E-2 -1.940716E-3
-8.362055E-3 3.7744427E-3
-2.6042715E-2 -2.2931434E-3
-1.4177848E-2 -4.539124E-4
-1.4904302E-2 -1.29707E-2
1.4544316E-2 3.2792648E-3
2.1366268E-2 2.0192668E-3
2.2587467E-2 -2.9592304E-6
-4.9400986E-3 -4.088003E-4
-2.6762713E-2 -1.561187E-3
-2.1327108E-3 -3.1753825E-3
-7.4353116E-4 5.0168426E-4
-2.1441111E-2 -2.8358249E-3
1.5189161E-2 8.992263E-3
2.0657802E-2 -3.7029324E-4
-1.3321534E-2 -8.864025E-4
-2.6943827E-2 -1.1480477E-3
-1.2269598E-2 -6.817822E-4
-2.6636235E-2 -1.0481502E-3
-1.8406214E-2 -7.708038E-3
6.613582E-3 1.502427E-3
7.814999E-3 -1.2937293E-3
9.554302E-3 1.6571632E-2
-1.5728535E-2 -5.004769E-3
1.7181851E-2 4.097499E-4
-1.6920951E-4 2.6224856E-3
2.8940056E-2 4.054022E-4
-7.807763E-3 -1.0490824E-3
7.3197125E-3 8.928444E-3
3.01752E-2 -4.9628614E-4
8.439822E-3 3.0933921E-3
-1.3892125E-2 -2.252957E-2
1.641815E-2 6.1217467E-3
2.0388404E-2 1.8682923E-3
-1.7415388E-2 -5.8750245E-3
6.513271E-3 1.1396538E-3
6.0617253E-3 0
6.8019857E-3 -2.1463432E-3
9.424646E-3 -5.518071E-4
4.1212374E-4 -7.2013245E-5
-4.3813875E-3 -1.4956701E-4
1.4143953E-2 -1.8151329E-3
-2.8189125E-3 -8.931556E-5
-1.433856E-2 2.584743E-3
-4.569619E-3 1.8286835E-4
1.2293415E-2 6.75232E-5
-8.268091E-3 -4.245769E-3
3.6161705E-3 7.145084E-4
-1.2799952E-2 7.398265E-4
-3.738521E-3 -6.4446795E-4
1.5430625E-3 1.2192195E-4
8.125416E-3 -1.0764137E-4
-9.246477E-3 -1.8817418E-3
-1.6819879E-3 6.887783E-4
8.936512E-3 -1.2089714E-3
7.391067E-3 5.8668074E-3
8.490064E-3 -1.8538844E-3
1.2501214E-2 -7.78687E-4
-3.0160171E-3 1.2236167E-3
-1.00678615E-2 6.0871727E-4
1.11694755E-2 -7.537192E-4
-9.352139E-3 8.66769E-4
-4.562223E-3 3.7459386E-4
-1.32392235E-2 4.5318037E-4
-5.6245956E-3 -1.5174174E-3
-3.99676E-3 4.991718E-4
4.500885E-3 7.998132E-5
-1.1950618E-2 -4.3244505E-5
7.0784204E-3 -6.3132925E-4
-6.021472E-3 8.8905326E-5
6.258794E-3 1.1974517E-3
-9.798506E-3 2.887233E-4
6.793746E-3 9.518325E-5
-1.677292E-3 -3.6034805E-3
-1.4132518E-2 1.7308388E-3
5.221464E-3 -9.538196E-5
-1.1429447E-2 -2.9699324E-4
-8.763244E-3 1.0752348E-3
9.696973E-3 -2.0355516E-4
3.730903E-3 -2.2364098E-3
1.2390398E-2 -3.4917684E-4
6.701828E-3 -5.642525E-4
7.7308104E-3 5.290542E-3
-7.029455E-3 -7.4620923E-4
-1.0173044E-2 2.2153287E-4
-1.0637184E-2 1.2408948E-3
2.3489243E-3 -7.8570454E-5
1.2689308E-2 -7.3339546E-4
1.1786303E-3 1.3783814E-3
3.226285E-4 -2.7706503E-4
1.02531E-2 1.5890914E-4
-7.6466426E-3 -3.4013037E-3
-9.70827E-3 1.3079959E-3
6.3222884E-3 -3.1358507E-4
1.275193E-2 -9.378966E-4
5.8156606E-3 -3.5222326E-4
1.26015935E-2 -9.6806395E-4
9.091211E-3 2.6199727E-3
-3.1970486E-3 -3.4462882E-4
-3.609403E-3 1.0381221E-3
-5.4088845E-3 -7.2799493E-3
7.6818396E-3 1.4938341E-3
-8.11411E-3 7.4989715E-4
-6.422299E-5 -1.2443195E-3
-1.36512825E-2 1.3971833E-3
3.7345586E-3 6.55993E-5
-3.937101E-3 -3.80309E-3
-1.4183481E-2 1.8896041E-3
-4.144403E-3 -9.936623E-4
7.778684E-3 9.847742E-3
-8.067902E-3 -1.982021E-3
-9.704242E-3 2.3897257E-4
8.5240025E-3 1.8111048E-3
-3.1299002E-3 -1.792891E-4
8.3926255E-3 0
1.0770971E-2 2.7178954E-3
4.8795092E-4 6.511774E-5
-4.863485E-3 -1.7191991E-3
1.6513921E-2 2.9713106E-3
-3.1315342E-3 -1.0983468E-3
-1.70048E-2 -2.176622E-3
-5.1924125E-3 -1.4128159E-3
1.3770782E-2 4.4286367E-3
-7.774445E-3 -7.6918397E-3
3.8047843E-3 2.0821823E-3
-1.4625045E-2 -3.7020484E-3
-3.966876E-3 -2.0469106E-3
1.6883314E-3 6.831804E-4
9.155808E-3 2.7562703E-3
-9.709369E-3 -5.385544E-3
-2.131276E-3 1.7733178E-4
1.0455917E-2 1.8076401E-3
6.21634E-3 9.200301E-3
1.0183299E-2 9.258904E-4
1.4303583E-2 3.5526643E-3
-3.817594E-3 3.0513003E-4
-1.1512887E-2 -2.881786E-3
1.2800371E-2 3.1091373E-3
-1.0801132E-2 -2.3387976E-3
-5.2519995E-3 -1.1950581E-3
-1.5016464E-2 -4.1792365E-3
-5.774184E-3 -3.6942882E-3
-4.661593E-3 -8.550467E-4
5.0222143E-3 1.6834273E-3
-1.3394719E-2 -4.2800144E-3
8.16638E-3 1.7979083E-3
-6.7882957E-3 -2.0323277E-3
6.5991255E-3 3.5598064E-3
-1.1097335E-2 -3.145485E-3
7.5896974E-3 2.5123444E-3
-6.061987E-4 -4.6374365E-3
-1.6471244E-2 -3.0618496E-3
5.8928835E-3 1.7417923E-3
-1.2720054E-2 -4.3802145E-3
-1.0214134E-2 -1.8963574E-3
1.0953245E-2 3.205102E-3
4.9783927E-3 -1.1884784E-3
1.4027155E-2 3.995389E-3
7.720048E-3 1.739832E-3
6.801618E-3 8.6739585E-3
-7.6236757E-3 -3.326334E-3
-1.149382E-2 -3.3534965E-3
-1.2375577E-2 -2.3739936E-3
2.663596E-3 7.4354425E-4
1.4498612E-2 3.6700875E-3
8.3450606E-4 1.9640406E-3
4.601315E-4 -1.9666363E-4
1.1448945E-2 3.8087454E-3
-7.3761153E-3 -6.5242043E-3
-1.1356983E-2 -1.9697878E-3
7.205403E-3 1.8867233E-3
1.4641292E-2 3.4627856E-3
6.6505866E-3 1.6639789E-3
1.4483277E-2 3.375703E-3
9.273749E-3 6.158951E-3
-3.4654462E-3 -1.5187296E-3
-4.4177636E-3 -1.1312372E-4
-3.4917255E-3 -1.0084163E-2
8.091009E-3 4.3962565E-3
-9.370532E-3 -2.0315784E-3
3.6852417E-4 -1.4190162E-3
-1.5813097E-2 -3.2658547E-3
4.1673966E-3 1.3959473E-3
-3.0712984E-3 -5.6615775E-3
-1.6584646E-2 -2.9017408E-3
-4.298682E-3 -2.582464E-3
5.24172E-3 1.3804636E-2
-8.35136E-3 -5.0807577E-3
-1.0973943E-2 -3.1679338E-3
8.923678E-3 5.050467E-3
-3.4486419E-3 -1.3094227E-3
1.4703477E-2 0
6.473169E-4 -7.444852E-5
-6.7984764E-3 -6.313876E-4
2.2155963E-2 -1.5345872E-3
-4.374657E-3 -3.9547557E-4
-2.252859E-2 2.7134465E-3
-7.1213963E-3 -1.3165888E-4
1.9107405E-2 1.2240701E-3
-1.246856E-2 -7.35389E-3
5.5573047E-3 1.440088E-3
-1.996845E-2 -1.493129E-5
-5.753908E-3 -1.3423285E-3
2.388023E-3 3.3002894E-4
1.2643028E-2 5.7230954E-4
-1.4204933E-2 -3.7674136E-3
-2.6778206E-3 9.1778446E-4
1.400436E-2 -1.0661803E-3
1.0957415E-2 9.79441E-3
1.3368938E-2 -2.109519E-3
1.9507514E-2 -7.268314E-5
-4.8006293E-3 1.6279015E-3
-1.5708715E-2 2.9929422E-5
1.743468E-2 -1.5509332E-4
-1.4619417E-2 4.9629627E-4
-7.12735E-3 1.6710497E-4
-2.0625325E-2 -5.0058943E-4
-8.6068725E-3 -2.8712642E-3
-6.25952E-3 4.1227153E-4
6.990602E-3 5.3407514E-4
-1.8576637E-2 -1.1551171E-3
1.1062853E-2 -3.3721895E-4
-9.370155E-3 -4.099148E-4
9.622039E-3 2.4315198E-3
-1.52608E-2 -4.4307084E-4
1.0554112E-2 7.66433E-4
-2.2797894E-3 -5.7553034E-3
-2.213051E-2 1.4045694E-3
8.126907E-3 3.270193E-4
-1.7743234E-2 -1.5021978E-3
-1.3722792E-2 8.7402284E-4
1.5095185E-2 5.6624616E-4
6.004315E-3 -3.137495E-3
1.9296123E-2 5.850231E-4
1.0471229E-2 -2.6721132E-4
1.15380995E-2 8.929372E-3
-1.0861324E-2 -1.8000919E-3
-1.5837006E-2 -5.816308E-4
-1.6651437E-2 9.6099934E-4
3.6592116E-3 9.166603E-5
1.9795837E-2 1.4857908E-5
1.7070342E-3 2.2503715E-3
5.268377E-4 -4.0140565E-4
1.5926842E-2 1.1804234E-3
-1.1579217E-2 -5.984362E-3
-1.52132865E-2 1.1498873E-3
9.85831E-3 8.797154E-5
1.9911818E-2 -2.9739647E-4
9.074132E-3 -1.822219E-5
1.9680822E-2 -3.5798477E-4
1.3896327E-2 4.901065E-3
-4.9393326E-3 -8.2685385E-4
-5.706327E-3 1.285482E-3
-7.746918E-3 -1.1811094E-2
1.180758E-2 3.0218707E-3
-1.2683915E-2 4.2728585E-4
1.3419525E-5 -1.9404886E-3
-2.135192E-2 9.296161E-4
5.8004432E-3 4.419545E-4
-5.7751224E-3 -6.2713656E-3
-2.2224197E-2 1.6467758E-3
-6.3531785E-3 -1.9221965E-3
1.1197684E-2 1.6019171E-2
-1.2363383E-2 -3.8160377E-3
-1.5109711E-2 -5.118415E-4
1.3088076E-2 3.5918208E-3
-4.8499834E-3 -5.63674E-4
2.8874925E-5 0
-2.9610432E-4 -6.2219595E-5
9.831808E-4 4.4623084E-5
-1.9059076E-4 -3.9561037E-5
-1.0055547E-3 5.3891704E-6
-3.1285107E-4 -4.1854222E-5
8.350008E-4 1.5063645E-4
-5.1169004E-4 -3.8688563E-4
2.3736733E-4 9.153798E-5
-8.790305E-4 -1.0176414E-4
-2.4651774E-4 -8.822959E-5
1.03461076E-4 2.6620779E-5
5.537084E-4 8.921159E-5
-6.0629303E-4 -2.3778366E-4
-1.2253744E-4 2.6846554E-5
6.21937E-4 2.3970342E-5
4.3280522E-4 4.8667748E-4
5.992454E-4 -2.5179728E-5
8.5918145E-4 9.5573065E-5
-2.195891E-4 4.736081E-5
-6.9172384E-4 -7.8220735E-5
7.6834275E-4 8.144956E-5
-6.4612913E-4 -5.2173556E-5
-3.1462594E-4 -2.8731345E-5
-9.054902E-4 -1.2647107E-4
-3.6437728E-4 -1.699861E-4
-2.776613E-4 -1.3543844E-5
3.0505535E-4 5.8908237E-5
-8.119831E-4 -1.4491339E-4
4.887468E-4 4.116887E-5
-4.1044323E-4 -6.549058E-5
4.1129635E-4 1.5576661E-4
-6.696095E-4 -9.677652E-5
4.6076145E-4 8.7180946E-5
-7.122617E-5 -2.6491913E-4
-9.81402E-4 -5.0218234E-5
3.561293E-4 5.5546134E-5
-7.7353534E-4 -1.5597371E-4
-6.08568E-4 -3.1004372E-5
6.616946E-4 1.0136068E-4
2.8022463E-4 -1.07725624E-4
8.4654486E-4 1.2345806E-4
4.6234624E-4 4.125533E-5
4.6274965E-4 4.5153458E-4
-4.6905264E-4 -1.3424302E-4
-6.942753E-4 -1.0579412E-4
-7.379412E-4 -4.2003903E-5
1.6063175E-4 2.256336E-5
8.714316E-4 1.008869E-4
6.375739E-5 1.0771532E-4
2.5226353E-5 -1.5004234E-5
6.951985E-4 1.3261064E-4
-4.7947138E-4 -3.2208944E-4
-6.755835E-4 -2.6406346E-5
4.3356422E-4 5.378876E-5
8.781187E-4 8.772723E-5
3.9957874E-4 4.51431E-5
8.68256E-4 8.3890285E-5
5.8696663E-4 2.8612986E-4
-2.1326628E-4 -6.141149E-5
-2.5772845E-4 2.7700022E-5
-2.8125272E-4 -5.5920566E-4
5.045251E-4 1.9282277E-4
-5.6056975E-4 -4.5411663E-5
1.0416123E-5 -8.536158E-5
-9.4471994E-4 -6.7185625E-5
2.5312533E-4 4.8826485E-5
-2.2249436E-4 -3.0533664E-4
-9.867529E-4 -4.0029532E-5
-2.699644E-4 -1.1679245E-4
4.11865E-4 7.619375E-4
-5.2497303E-4 -2.3059997E-4
-6.626097E-4 -9.9039105E-5
5.580128E-4 2.2439825E-4
-2.1066525E-4 -4.9372673E-5
3.1705375E-3 0
-1.0178399E-2 1.6609576E-3
2.0397012E-3 -4.9969253E-6
1.030007E-2 -2.2220297E-3
3.2983879E-3 -2.4492719E-4
-8.887291E-3 2.545225E-4
6.080899E-3 2.8648158E-3
-2.6313814E-3 -4.27218E-4
9.233493E-3 -8.505691E-4
2.7180873E-3 3.7357432E-4
-1.1183268E-3 -5.0051127E-5
-5.870358E-3 2.78289E-4
6.729742E-3 1.1319672E-3
1.1987385E-3 -5.393472E-4
-6.429441E-3 1.0943384E-3
-5.486987E-3 -4.0581347E-3
-6.090837E-3 1.5494631E-3
-9.016607E-3 8.712859E-4
2.1497724E-3 -9.588417E-4
7.261985E-3 -6.883925E-4
-8.0546485E-3 8.2038E-4
6.738297E-3 -8.572514E-4
3.2883117E-3 -3.8332297E-4
9.558069E-3 -6.5422134E-4
4.102873E-3 9.580012E-4
2.8765234E-3 -4.5941517E-4
-3.2551927E-3 5.3244807E-5
8.638919E-3 -2.6361237E-4
-5.1006726E-3 6.309749E-4
4.3500997E-3 -2.1283391E-4
-4.5533744E-3 -7.110832E-4
7.0751924E-3 -4.504562E-4
-4.9128374E-3 9.883088E-5
1.3012512E-3 2.5631941E-3
1.0172214E-2 -1.5997482E-3
-3.7716972E-3 1.9777584E-4
8.26848E-3 -6.734447E-5
6.3075027E-3 -9.933992E-4
-7.0039057E-3 3.863917E-4
-2.6414986E-3 1.7085233E-3
-8.947109E-3 5.581037E-4
-4.8301285E-3 5.7319994E-4
-5.7183336E-3 -3.6332295E-3
5.09927E-3 3.6591195E-4
7.347564E-3 -4.1113287E-4
7.65789E-3 -1.1593748E-3
-1.6958533E-3 1.1474778E-4
-9.153679E-3 8.4319065E-4
-8.859188E-4 -9.672064E-4
-2.263581E-4 2.0822187E-4
-7.414815E-3 1.3812588E-4
5.6108823E-3 2.269774E-3
6.9848206E-3 -1.1849551E-3
-4.561984E-3 3.8265382E-4
-9.193896E-3 9.925487E-4
-4.1948427E-3 3.9808097E-4
-9.084488E-3 1.010644E-3
-6.635731E-3 -1.6693879E-3
2.3193154E-3 1.7021224E-4
2.5832455E-3 -8.394084E-4
4.089142E-3 5.128456E-3
-5.5892575E-3 -8.901949E-4
5.846339E-3 -7.4222975E-4
7.712242E-5 8.9780387E-4
9.83261E-3 -1.3467092E-3
-2.7009407E-3 4.473166E-5
2.9395558E-3 2.651712E-3
1.0205132E-2 -1.7157604E-3
3.0200735E-3 6.159557E-4
-5.8653806E-3 -6.9259717E-3
5.8803475E-3 1.2335283E-3
7.0082867E-3 -4.1217054E-4
-6.2057977E-3 -1.0987372E-3
2.2667015E-3 5.236214E-5
3.354592E-2 0
-6.550685E-3 -1.052502E-3
-3.4230452E-2 1.7374743E-3
-1.0717148E-2 -9.416438E-4
2.8664272E-2 3.8387133E-3
-1.8020755E-2 -1.2382555E-2
8.223736E-3 2.75001E-3
-3.0087939E-2 -2.1065855E-3
-8.53019E-3 -2.6232197E-3
3.5639524E-3 7.4654014E-4
1.899144E-2 2.1819263E-3
-2.1011531E-2 -7.159489E-3
-4.130868E-3 1.1034838E-3
2.1213776E-2 -1.4495433E-4
1.5488969E-2 1.5902342E-2
2.036518E-2 -1.7834293E-3
2.940252E-2 1.9264568E-3
-7.4037393E-3 1.9519699E-3
-2.3673832E-2 -1.5944033E-3
2.628767E-2 1.5859376E-3
-2.2081092E-2 -7.779688E-4
-1.0757302E-2 -4.920718E-4
-3.1027062E-2 -2.906958E-3
-1.2669611E-2 -5.2248607E-3
-9.475199E-3 -3.2068016E-5
1.0478062E-2 1.5343741E-3
-2.7871683E-2 -3.6794154E-3
1.6705276E-2 6.464803E-4
-1.4076653E-2 -1.5956347E-3
1.4245212E-2 4.6681836E-3
-2.2949524E-2 -2.2603972E-3
1.582349E-2 2.2564237E-3
-2.8346295E-3 -8.91033E-3
-3.3493996E-2 -1.9326179E-4
1.2211916E-2 1.3409673E-3
-2.657964E-2 -4.1154344E-3
-2.0769436E-2 -1.1521164E-4
2.268711E-2 2.4287181E-3
9.37507E-3 -4.1010757E-3
2.9015344E-2 2.8954598E-3
1.580648E-2 6.9022435E-4
1.6454259E-2 1.4659461E-2
-1.6178532E-2 -3.8460575E-3
-2.380332E-2 -2.5293247E-3
-2.5191544E-2 -2.8980986E-4
5.504323E-3 5.2003533E-4
2.9827844E-2 2.088461E-3
2.3373787E-3 3.569138E-3
8.357608E-4 -5.498734E-4
2.3876196E-2 3.4409913E-3
-1.6823584E-2 -1.0226059E-2
-2.3044184E-2 1.4491437E-4
1.4845832E-2 1.1614619E-3
3.00352E-2 1.6300441E-3
1.3675276E-2 9.1960066E-4
2.9693445E-2 1.5146363E-3
2.0428188E-2 8.835525E-3
-7.356546E-3 -1.7614592E-3
-8.732754E-3 1.3414671E-3
-1.0440745E-2 -1.8606108E-2
1.7476885E-2 5.785858E-3
-1.9157376E-2 -6.799509E-4
2.2274812E-4 -2.9226283E-3
-3.2271203E-2 -8.2768506E-4
8.694283E-3 1.2713466E-3
-8.047719E-3 -1.0052763E-2
-3.366045E-2 1.6192868E-4
-9.372682E-3 -3.5595407E-3
1.5201348E-2 2.5307208E-2
-1.823151E-2 -7.040557E-3
-2.2714676E-2 -2.3482551E-3
1.9346919E-2 6.778331E-3
-7.249377E-3 -1.3555613E-3
1.3122081E-3 0
6.6298437E-3 -1.4132648E-3
2.122337E-3 -1.5237049E-4
-5.7178596E-3 1.4973503E-4
3.9075078E-3 1.852605E-3
-1.6921726E-3 -2.7898926E-4
5.9415214E-3 -5.3264387E-4
1.7480376E-3 2.446153E-4
-7.1937405E-4 -3.39619E-5
-3.7770143E-3 1.6977976E-4
4.327659E-3 7.388344E-4
7.720341E-4 -3.4508877E-4
-4.137975E-3 6.938874E-4
-3.523546E-3 -2.6193664E-3
-3.9208587E-3 9.872162E-4
-5.802024E-3 5.4631365E-4
1.3845235E-3 -6.134632E-4
4.6729357E-3 -4.314181E-4
-5.183088E-3 5.1508046E-4
4.3362975E-3 -5.408753E-4
2.1160727E-3 -2.4142058E-4
6.1500203E-3 -4.0581598E-4
2.6379903E-3 6.22777E-4
1.8512771E-3 -2.9102192E-4
-2.0942462E-3 2.91235E-5
5.558089E-3 -1.5597444E-4
-3.282409E-3 3.9788597E-4
2.7988837E-3 -1.3006655E-4
-2.9282002E-3 -4.6463724E-4
4.552392E-3 -2.78641E-4
-3.1607302E-3 5.5837947E-5
8.3309395E-4 1.6510297E-3
6.546609E-3 -1.0131333E-3
-2.4267565E-3 1.2129076E-4
5.3194654E-3 -3.0293242E-5
4.0593697E-3 -6.2914233E-4
-4.5064297E-3 2.3753873E-4
-1.7020472E-3 1.0949807E-3
-5.7568206E-3 3.449436E-4
-3.1082686E-3 3.6114408E-4
-3.673048E-3 -2.346377E-3
3.2799353E-3 2.4343866E-4
4.7275545E-3 -2.5291374E-4
4.928376E-3 -7.3379104E-4
-1.0911736E-3 7.11479E-5
-5.8901627E-3 5.28023E-4
-5.684135E-4 -6.236289E-4
-1.4595107E-4 1.3359857E-4
-4.770389E-3 7.71743E-5
3.6060703E-3 1.4690561E-3
4.4954102E-3 -7.5130834E-4
-2.935463E-3 2.3898274E-4
-5.916271E-3 6.2404596E-4
-2.6992941E-3 2.494861E-4
-5.845914E-3 6.358596E-4
-4.266332E-3 -1.084425E-3
1.4918164E-3 1.1315796E-4
1.6632016E-3 -5.3594506E-4
2.622584E-3 3.3057327E-3
-3.5943326E-3 -5.8149785E-4
3.7622934E-3 -4.6828442E-4
4.8200156E-5 5.7770545E-4
6.3277334E-3 -8.5088116E-4
-1.7376659E-3 2.4520363E-5
1.8869246E-3 1.7105582E-3
6.5679685E-3 -1.0877161E-3
1.9419322E-3 4.0102244E-4
-3.7624585E-3 -4.464928E-3
3.7810581E-3 8.028331E-4
4.509289E-3 -2.541162E-4
-3.9906423E-3 -7.16631E-4
1.458154E-3 3.7258567E-5
3.5018943E-2 0
1.0887069E-2 1.5159423E-3
-2.9050369E-2 -5.401681E-3
1.7747141E-2 1.3568597E-2
-8.249113E-3 -3.2320658E-3
3.05928E-2 3.7079456E-3
8.568388E-3 3.1185609E-3
-3.5980116E-3 -9.463651E-4
-1.9265966E-2 -3.2100922E-3
2.106947E-2 8.393854E-3
4.272315E-3 -9.1204746E-4
-2.1654168E-2 -9.5083134E-4
-1.498139E-2 -1.7029077E-2
-2.087312E-2 7.6502975E-4
-2.9902726E-2 -3.4886398E-3
7.655919E-3 -1.608333E-3
2.4074337E-2 2.8530986E-3
-2.6741952E-2 -2.979841E-3
2.2491382E-2 1.9375106E-3
1.0951328E-2 1.0592755E-3
3.1509634E-2 4.5732902E-3
1.265753E-2 5.9876875E-3
9.666887E-3 5.2348006E-4
-1.0612403E-2 -2.1083844E-3
2.8249858E-2 5.1980806E-3
-1.7012678E-2 -1.5249038E-3
1.4281254E-2 2.35728E-3
-1.4294115E-2 -5.5012573E-3
2.3300752E-2 3.495168E-3
-1.6029514E-2 -3.122028E-3
2.4309717E-3 9.23897E-3
3.4167457E-2 1.9319903E-3
-1.2391656E-2 -2.0008332E-3
2.6908865E-2 5.5760755E-3
2.1187287E-2 1.1932935E-3
-2.3024267E-2 -3.6533324E-3
-9.778787E-3 3.6991898E-3
-2.9457457E-2 -4.4573625E-3
-1.6093276E-2 -1.522988E-3
-1.6030751E-2 -1.5810829E-2
1.6309468E-2 4.762489E-3
2.4158042E-2 3.8138058E-3
2.569059E-2 1.6004925E-3
-5.5897087E-3 -8.157377E-4
-3.0328337E-2 -3.6759789E-3
-2.2002151E-3 -3.7630317E-3
-8.812953E-4 5.178067E-4
-2.4185184E-2 -4.7478485E-3
1.6637236E-2 1.1306089E-2
2.3521926E-2 1.0456771E-3
-1.5088617E-2 -1.954086E-3
-3.0563667E-2 -3.2189481E-3
-1.39067015E-2 -1.6466617E-3
-3.022092E-2 -3.0834847E-3
-2.0387417E-2 -1.0073879E-2
7.4154288E-3 2.1784278E-3
8.980433E-3 -9.1653713E-4
9.690114E-3 1.952655E-2
-1.7533844E-2 -6.80912E-3
1.9513082E-2 1.6860616E-3
-3.7866796E-4 2.97073E-3
3.2886855E-2 2.5160273E-3
-8.805849E-3 -1.7476003E-3
7.6912674E-3 1.0674722E-2
3.4355704E-2 1.5781744E-3
9.379577E-3 4.117624E-3
-1.4200785E-2 -2.6610963E-2
1.8238883E-2 8.128507E-3
2.3056563E-2 3.5726556E-3
-1.9390633E-2 -7.9187015E-3
7.3270965E-3 1.7586965E-3
3.4503145E-3 0
-9.26533E-3 -4.2176625E-4
6.104798E-3 3.450093E-3
-2.7044874E-3 -6.4772216E-4
9.671536E-3 -1.715718E-4
2.7988341E-3 5.9861335E-4
-1.1595562E-3 -1.3846123E-4
-6.1285757E-3 -1.639799E-4
6.913669E-3 1.6974921E-3
1.288742E-3 -4.684923E-4
-6.773243E-3 6.4178644E-4
-5.394752E-3 -4.6456517E-3
-6.456144E-3 1.1414214E-3
-9.447504E-3 2.0987868E-4
2.310532E-3 -8.3143456E-4
7.6079997E-3 -1.5515616E-4
-8.442823E-3 2.3123193E-4
7.076239E-3 -3.712799E-4
3.450523E-3 -1.4475507E-4
9.994031E-3 5.7767476E-5
4.1943127E-3 1.313583E-3
3.028008E-3 -2.557266E-4
-3.3905697E-3 -1.96075E-4
9.007643E-3 3.9312246E-4
-5.355098E-3 2.623865E-4
4.541957E-3 1.14632945E-4
-4.6820547E-3 -1.0915097E-3
7.395294E-3 7.794517E-5
-5.1185796E-3 -2.767053E-4
1.1557144E-3 2.7670765E-3
1.0705985E-2 -8.7844353E-4
-3.939067E-3 -8.561606E-5
8.607104E-3 5.6868774E-4
6.6385907E-3 -5.461967E-4
-7.3161838E-3 -1.3908565E-4
-2.8800007E-3 1.5733603E-3
-9.3510095E-3 -1.10563546E-4
-5.069181E-3 2.2318195E-4
-5.668252E-3 -4.2214845E-3
5.276629E-3 7.745907E-4
7.6756114E-3 1.3989503E-4
8.056254E-3 -6.1454636E-4
-1.7731021E-3 -1.16313995E-5
-9.587932E-3 1.7006129E-4
-8.469254E-4 -1.0746466E-3
-2.5157124E-4 1.9913194E-4
-7.7244835E-3 -4.2910586E-4
5.661796E-3 2.7947472E-3
7.3580183E-3 -6.931534E-4
-4.775504E-3 4.5666635E-5
-9.641311E-3 3.2233525E-4
-4.394749E-3 9.0077796E-5
-9.528889E-3 3.4961168E-4
-6.774351E-3 -2.2493214E-3
2.3996914E-3 3.5624532E-4
2.7522582E-3 -6.736988E-4
3.8578566E-3 5.6511485E-3
-5.745873E-3 -1.357867E-3
6.1394274E-3 -3.2052433E-4
1.0876107E-5 9.399651E-4
1.033314E-2 -6.414359E-4
-2.8133101E-3 -1.6211485E-4
2.8532448E-3 2.9857245E-3
1.0749194E-2 -9.965912E-4
3.0942732E-3 8.740974E-4
-5.5668615E-3 -7.6583643E-3
6.022178E-3 1.7375323E-3
7.3227324E-3 1.1260587E-4
-6.371164E-3 -1.6224472E-3
2.35406E-3 2.2957857E-4
2.493228E-2 0
-1.6815307E-2 -8.518486E-3
7.3416946E-3 1.4087695E-3
-2.5950562E-2 1.642978E-3
-7.589045E-3 -1.265362E-3
3.130749E-3 2.300739E-4
1.6477462E-2 -3.088113E-4
-1.8773178E-2 -3.7132471E-3
-3.4034648E-3 1.4156053E-3
1.811013E-2 -2.551387E-3
1.5054725E-2 1.1815784E-2
1.719753E-2 -3.8543232E-3
2.5344273E-2 -1.7184606E-3
-6.102971E-3 2.5151386E-3
-2.0411236E-2 1.3466511E-3
2.2643734E-2 -1.6529914E-3
-1.8956847E-2 1.8620171E-3
-9.248194E-3 8.105109E-4
-2.6844613E-2 1.0665428E-3
-1.1423803E-2 -3.0147282E-3
-8.100024E-3 1.0568609E-3
9.128861E-3 1.1206859E-4
-2.42368E-2 4.5418703E-5
1.4348281E-2 -1.3592084E-3
-1.2210792E-2 2.47378E-4
1.27064185E-2 2.3587605E-3
-1.986854E-2 6.946897E-4
1.3779043E-2 1.1735823E-4
-3.4417538E-3 -7.289316E-3
-2.864202E-2 3.6676344E-3
1.0588271E-2 -2.516018E-4
-2.3182673E-2 -4.74999E-4
-1.7760225E-2 2.2782339E-3
1.9663572E-2 -5.208347E-4
7.541505E-3 -4.577087E-3
2.5124324E-2 -8.4616337E-4
1.3585284E-2 -1.2189795E-3
1.5737318E-2 1.064331E-2
-1.4264322E-2 -1.4350382E-3
-2.0628862E-2 5.625982E-4
-2.1558803E-2 2.635073E-3
4.762835E-3 -1.8550934E-4
2.5726242E-2 -1.6287029E-3
2.4056626E-3 2.7822824E-3
6.512169E-4 -5.654926E-4
2.0795457E-2 2.0806231E-4
-1.5545578E-2 -6.8127993E-3
-1.9674182E-2 2.7608094E-3
1.2818354E-2 -7.063882E-4
2.5850965E-2 -2.0441387E-3
1.1790464E-2 -7.7910477E-4
2.5545739E-2 -2.1036437E-3
1.8466514E-2 5.212138E-3
-6.4875777E-3 -6.633081E-4
-7.3084463E-3 2.1455584E-3
-1.1050522E-2 -1.4703771E-2
1.5595711E-2 2.9439838E-3
-1.6447378E-2 1.6112061E-3
-1.4410754E-4 -2.522813E-3
-2.766977E-2 2.9856078E-3
7.574562E-3 9.14379E-5
-8.0269575E-3 -7.6689585E-3
-2.8743606E-2 3.990183E-3
-8.41608E-3 -1.9690206E-3
1.5885172E-2 1.9884955E-2
-1.6384099E-2 -3.929745E-3
-1.9677922E-2 5.927434E-4
1.7307183E-2 3.5780405E-3
-6.3495575E-3 -3.2874048E-4
1.4251369E-2 0
-5.4328535E-3 1.5582701E-3
1.6940728E-2 -9.974486E-3
5.550679E-3 -1.7395008E-3
-2.190108E-3 9.144963E-4
-1.1007536E-2 5.8380454E-3
1.39300525E-2 -3.9097765E-3
1.8117673E-3 -2.1175842E-3
-1.1342462E-2 7.908352E-3
-1.4190535E-2 -2.8253559E-3
-1.0281801E-2 8.4753E-3
-1.6506033E-2 9.8182475E-3
3.256748E-3 -3.781479E-3
1.3306033E-2 -7.882037E-3
-1.4707052E-2 8.851412E-3
1.2149055E-2 -7.732708E-3
5.960421E-3 -3.7064238E-3
1.7740658E-2 -9.89118E-3
8.734687E-3 -1.869862E-3
5.101882E-3 -3.4802828E-3
-6.1951512E-3 3.0434283E-3
1.6330728E-2 -8.311497E-3
-9.2126485E-3 5.8190073E-3
8.150915E-3 -4.3388405E-3
-9.375612E-3 2.750497E-3
1.316277E-2 -7.2569093E-3
-9.333223E-3 4.628665E-3
4.8117572E-3 3.7402732E-3
1.8064199E-2 -1.2259569E-2
-7.055181E-3 3.7873304E-3
1.5797593E-2 -7.6003484E-3
1.1199798E-2 -7.604576E-3
-1.3083934E-2 7.0696245E-3
-3.5224564E-3 5.663634E-3
-1.6655724E-2 9.154785E-3
-8.745966E-3 5.4637427E-3
-1.4250309E-2 -1.8013754E-3
1.011072E-2 -3.9057722E-3
1.3720694E-2 -7.427598E-3
1.3639788E-2 -9.143083E-3
-3.1488605E-3 1.7524086E-3
-1.6794315E-2 9.888217E-3
-2.573081E-3 -1.0545498E-3
-2.459972E-4 6.038883E-4
-1.4096359E-2 6.9647525E-3
1.2812241E-2 -7.1656E-4
1.23257665E-2 -8.583976E-3
-8.403853E-3 4.855998E-3
-1.6736494E-2 1.0211015E-2
-7.6857577E-3 4.5538465E-3
-1.6510308E-2 1.0146863E-2
-1.4235346E-2 2.79409E-3
4.602106E-3 -1.769217E-3
4.1960403E-3 -3.9440882E-3
1.2476668E-2 6.141224E-3
-1.15242135E-2 3.342969E-3
1.0542264E-2 -6.706152E-3
9.5914846E-4 1.6522474E-3
1.76415E-2 -1.1467399E-2
-5.1398217E-3 2.526293E-3
8.033909E-3 2.4297158E-3
1.8022507E-2 -1.251182E-2
6.3488805E-3 -1.5474949E-3
-1.7507574E-2 -7.983787E-3
1.2392735E-2 -2.9474979E-3
1.3069043E-2 -7.123025E-3
-1.2895134E-2 3.5000874E-3
4.394709E-3 -1.9477056E-3
2.241476E-3 0
-7.5487085E-3 1.9501067E-3
-2.3062092E-3 5.6204808E-5
9.348974E-4 -1.0915055E-4
4.834594E-3 -1.0219743E-3
-5.7378644E-3 -3.266633E-5
-9.222156E-4 6.091556E-4
5.188644E-3 -1.7745872E-3
5.100733E-3 2.6286899E-3
4.846294E-3 -2.1066917E-3
7.3659127E-3 -1.9380761E-3
-1.6549989E-3 1.0854626E-3
-5.934312E-3 1.5498553E-3
6.5743965E-3 -1.7662067E-3
-5.476925E-3 1.6194343E-3
-2.6774765E-3 7.6122576E-4
-7.844547E-3 1.8308834E-3
-3.5342583E-3 -2.422444E-4
-2.3254608E-3 7.688915E-4
2.6944662E-3 -4.8281546E-4
-7.1343333E-3 1.3828466E-3
4.148272E-3 -1.2109729E-3
-3.581678E-3 7.6280074E-4
3.87488E-3 -2.3387947E-5
-5.8113453E-3 1.3272108E-3
4.064083E-3 -7.4401085E-4
-1.4253518E-3 -1.9519791E-3
-8.226849E-3 2.6983754E-3
3.103663E-3 -6.723659E-4
-6.853335E-3 1.1700392E-3
-5.101043E-3 1.674382E-3
5.760813E-3 -1.2644352E-3
1.9620897E-3 -1.7739177E-3
7.3504327E-3 -1.6687865E-3
3.9315196E-3 -1.126568E-3
5.2354843E-3 2.2448676E-3
-4.2814347E-3 3.8341968E-4
-6.0426975E-3 1.3312756E-3
-6.19943E-3 1.994093E-3
1.3920083E-3 -3.2374458E-4
7.4834614E-3 -1.9332282E-3
8.655941E-4 6.8335683E-4
1.5980835E-4 -2.0331427E-4
6.135299E-3 -1.1137559E-3
-4.962585E-3 -1.1277491E-3
-5.63737E-3 1.9246296E-3
3.7346487E-3 -9.322931E-4
7.4967137E-3 -2.0626066E-3
3.4278613E-3 -8.956259E-4
7.403473E-3 -2.062883E-3
5.7322555E-3 4.913654E-4
-1.947847E-3 1.712517E-4
-2.0308523E-3 1.044748E-3
-4.0848157E-3 -3.7053553E-3
4.758744E-3 -1.4316085E-5
-4.7521447E-3 1.4037844E-3
-1.849833E-4 -7.3473854E-4
-7.979092E-3 2.4426063E-3
2.235613E-3 -4.010666E-4
-2.796987E-3 -1.8046892E-3
-8.238537E-3 2.7990954E-3
-2.589502E-3 -1.04267645E-4
5.8012106E-3 4.957859E-3
-5.0465963E-3 -2.3140947E-4
-5.760975E-3 1.2864206E-3
5.29854E-3 7.5686876E-5
-1.8883002E-3 2.6197167E-4
2.7118701E-2 0
7.815612E-3 1.8171419E-3
-3.2434536E-3 -4.457795E-4
-1.7170785E-2 -7.64402E-4
1.9295216E-2 5.1020114E-3
3.635754E-3 -1.2491411E-3
-1.9017914E-2 1.4621759E-3
-1.4890957E-2 -1.3290433E-2
-1.8153902E-2 2.8784645E-3
-2.6492625E-2 1.1851889E-4
6.517969E-3 -2.2156904E-3
2.133361E-2 -5.6598095E-5
-2.3677478E-2 2.2833372E-4
1.9853784E-2 -6.888541E-4
9.679319E-3 -2.3417917E-4
2.8011281E-2 6.5889483E-4
1.1691709E-2 3.890657E-3
8.50049E-3 -5.662527E-4
-9.494316E-3 -7.1821606E-4
2.5229674E-2 1.5498739E-3
-1.5023861E-2 4.692033E-4
1.2725805E-2 5.471808E-4
-1.3069936E-2 -3.29242E-3
2.0725787E-2 5.862277E-4
-1.4334071E-2 -1.0301577E-3
3.101973E-3 7.813829E-3
3.0053506E-2 -1.9299849E-3
-1.1037296E-2 -4.3586455E-4
2.4098197E-2 2.0220822E-3
1.8635718E-2 -1.2009252E-3
-2.0500993E-2 -7.536767E-4
-8.1511345E-3 4.267056E-3
-2.6206208E-2 -7.749115E-4
-1.4220461E-2 3.7352636E-4
-1.567869E-2 -1.2115055E-2
1.4752339E-2 2.433634E-3
2.1508459E-2 7.738173E-4
2.261295E-2 -1.3220204E-3
-4.9695834E-3 -1.2077373E-4
-2.6884282E-2 -7.70141E-8
-2.3205685E-3 -3.0544437E-3
-7.1507844E-4 5.456747E-4
-2.1631073E-2 -1.5869314E-3
1.5731541E-2 8.115464E-3
2.0659646E-2 -1.5770838E-3
-1.338843E-2 -1.0946101E-4
-2.7041474E-2 4.2410646E-4
-1.232335E-2 3.39614E-5
-2.6727702E-2 5.0615554E-4
-1.8877255E-2 -6.641912E-3
6.7088334E-3 1.117915E-3
7.7483244E-3 -1.7515774E-3
1.0532902E-2 1.6032506E-2
-1.603867E-2 -4.0919427E-3
1.7225295E-2 -5.931677E-4
-1.6254244E-5 2.635346E-3
2.8996602E-2 -1.2841723E-3
-7.877896E-3 -5.943178E-4
7.849428E-3 8.511131E-3
3.0180493E-2 -2.259014E-3
8.630056E-3 2.6040392E-3
-1.5223583E-2 -2.1743892E-2
1.6794296E-2 5.1699174E-3
2.0520667E-2 6.7977654E-4
-1.7778259E-2 -4.8646773E-3
6.587222E-3 7.6058763E-4
2.374221E-3 0
-9.646339E-4 8.886028E-5
-4.9998416E-3 9.3026145E-4
5.9027527E-3 1.7748626E-4
9.641234E-4 -6.0362334E-4
-5.382988E-3 1.6957319E-3
-5.1821265E-3 -2.8325063E-3
-5.039079E-3 2.0460119E-3
-7.6272353E-3 1.8093477E-3
1.7300126E-3 -1.0753114E-3
6.144556E-3 -1.4458124E-3
-6.8085506E-3 1.6523616E-3
5.675704E-3 -1.5288695E-3
2.7738886E-3 -7.160724E-4
8.117004E-3 -1.6870575E-3
3.6302523E-3 3.3786157E-4
2.411899E-3 -7.327861E-4
-2.7843881E-3 4.2919538E-4
7.3750457E-3 -1.2438901E-3
-4.298438E-3 1.1419277E-3
3.704243E-3 -6.950201E-4
-3.9873715E-3 -7.309891E-5
6.0124546E-3 -1.2198213E-3
-4.2001083E-3 6.6359126E-4
1.4175698E-3 2.0440922E-3
8.532099E-3 -2.5700163E-3
-3.2101555E-3 6.139595E-4
7.0805955E-3 -1.031983E-3
5.290345E-3 -1.5948294E-3
-5.958889E-3 1.1564996E-3
-2.063235E-3 1.7759486E-3
-7.6045557E-3 1.5326692E-3
-4.073309E-3 1.0605203E-3
-5.330393E-3 -2.4409783E-3
4.4146953E-3 -2.8713606E-4
6.2505915E-3 -1.2182023E-3
6.4284694E-3 -1.8962317E-3
-1.4403269E-3 2.9818973E-4
-7.748057E-3 1.8014121E-3
-8.7345706E-4 -7.247966E-4
-1.6952166E-4 2.0517873E-4
-6.3404124E-3 9.920787E-4
5.077624E-3 1.2847545E-3
5.848435E-3 -1.8388558E-3
-3.8658811E-3 8.6557155E-4
-7.7649364E-3 1.9341947E-3
-3.5493146E-3 8.3553785E-4
-7.66901E-3 1.9368165E-3
-5.8854804E-3 -6.492918E-4
2.008394E-3 -1.273553E-4
2.1156997E-3 -1.0239964E-3
4.1098725E-3 3.9147916E-3
-4.896534E-3 -1.045955E-4
4.924585E-3 -1.3251656E-3
1.7190204E-4 7.605961E-4
8.270774E-3 -2.3130728E-3
-2.3102334E-3 3.5659148E-4
2.8325107E-3 1.9269421E-3
8.54665E-3 -2.6733517E-3
2.6616715E-3 1.7221033E-4
-5.844429E-3 -5.246505E-3
5.186538E-3 3.6463552E-4
5.959607E-3 -1.179116E-3
-5.449663E-3 -2.1073328E-4
1.9494026E-3 -2.221883E-4
3.952516E-4 0
2.0662271E-3 -1.9083076E-4
-2.3916154E-3 -2.9303483E-4
-4.1431034E-4 2.091647E-4
2.250547E-3 -4.8749734E-4
1.9994588E-3 1.344785E-3
2.1239282E-3 -6.426858E-4
3.1666253E-3 -4.4966306E-4
-7.431411E-4 3.7214413E-4
-2.550614E-3 3.5745304E-4
2.8281226E-3 -4.1652157E-4
-2.3632308E-3 4.087467E-4
-1.1538173E-3 1.8711778E-4
-3.3610389E-3 3.8164665E-4
-1.4623079E-3 -2.731414E-4
-1.0073684E-3 2.0745677E-4
1.1473462E-3 -7.01682E-5
-3.0429985E-3 2.2935934E-4
1.7891723E-3 -3.0308118E-4
-1.5310276E-3 1.4374386E-4
1.617313E-3 1.7893559E-4
-2.488484E-3 2.7057822E-4
1.7313187E-3 -1.124157E-4
-4.994469E-4 -8.835599E-4
-3.5627368E-3 7.248523E-4
1.3272484E-3 -1.2930168E-4
-2.9154338E-3 1.5428294E-4
-2.2091297E-3 4.499686E-4
2.4643508E-3 -2.468558E-4
9.047505E-4 -6.4433785E-4
3.1470554E-3 -3.3809897E-4
1.6946567E-3 -2.7843172E-4
2.0743527E-3 1.1912583E-3
-1.8044149E-3 -4.856747E-5
-2.5851768E-3 2.610076E-4
-2.6828249E-3 5.2983005E-4
5.963578E-4 -6.724564E-5
3.2154175E-3 -4.4191699E-4
3.2775404E-4 3.2717214E-4
7.6555036E-5 -7.7018354E-5
2.6132078E-3 -1.6577303E-4
-2.0149283E-3 -7.120301E-4
-2.4450123E-3 5.2822754E-4
1.6030836E-3 -2.0698838E-4
3.2272453E-3 -4.952341E-4
1.4733402E-3 -2.066341E-4
3.188369E-3 -4.9988955E-4
2.3669396E-3 4.840806E-4
-8.2076684E-4 -2.3424614E-5
-8.979232E-4 3.3686E-4
-1.5233009E-3 -1.7443805E-3
1.985522E-3 2.2575993E-4
-2.050431E-3 3.5409493E-4
-4.1375995E-5 -3.1546009E-4
-3.4469448E-3 6.302383E-4
9.519823E-4 -5.8415873E-5
-1.0787147E-3 -8.889195E-4
-3.5725166E-3 7.6629256E-4
-1.0749782E-3 -1.6958696E-4
2.1782003E-3 2.3503683E-3
-2.0936166E-3 -3.422668E-4
-2.465489E-3 2.5601775E-4
2.206283E-3 2.8958503E-4
-8.003481E-4 1.7313438E-5
1.08935945E-2 0
-1.2360989E-2 -2.6865678E-3
-2.2668454E-3 8.9340215E-4
1.2000383E-2 -1.4618707E-3
9.803148E-3 7.995387E-3
1.14133945E-2 -2.3342702E-3
1.677103E-2 -8.217971E-4
-4.064537E-3 1.5866352E-3
-1.3506236E-2 6.371729E-4
1.49854645E-2 -8.119778E-4
-1.2551431E-2 9.957865E-4
-6.1220657E-3 4.211093E-4
-1.7754512E-2 3.7236826E-4
-7.512522E-3 -2.133895E-3
-5.3663054E-3 5.9814035E-4
6.031773E-3 1.87135E-4
-1.6018393E-2 -2.7018E-4
9.499452E-3 -7.2056754E-4
-8.073038E-3 1.2246332E-5
8.368313E-3 1.7162601E-3
-1.3139498E-2 2.1302063E-4
9.104961E-3 2.4822805E-4
-2.184331E-3 -4.8600566E-3
-1.8974615E-2 2.069137E-3
7.000785E-3 -3.5134413E-5
-1.5315284E-2 -6.010623E-4
-1.1765751E-2 1.2856806E-3
1.3001885E-2 -1.00660334E-4
5.0407876E-3 -2.9315355E-3
1.6614864E-2 -2.480297E-4
8.99346E-3 -6.3734216E-4
1.0268788E-2 7.2289663E-3
-9.409355E-3 -1.1250786E-3
-1.36403525E-2 1.1630582E-4
-1.4280608E-2 1.4744626E-3
3.1500016E-3 -6.3608466E-5
1.7022358E-2 -7.5774605E-4
1.5554138E-3 1.8685756E-3
4.373861E-4 -3.6566166E-4
1.37409065E-2 3.950787E-4
-1.0189515E-2 -4.6950504E-3
-1.303664E-2 1.5809033E-3
8.4802555E-3 -3.0807566E-4
1.7109932E-2 -1.0307581E-3
7.801835E-3 -3.6886448E-4
1.6908947E-2 -1.073865E-3
1.2139754E-2 3.6733698E-3
-4.279352E-3 -5.187281E-4
-4.8566447E-3 1.327453E-3
-7.1210437E-3 -9.854429E-3
1.0270566E-2 2.1388144E-3
-1.0889844E-2 8.6111063E-4
-6.399145E-5 -1.6690837E-3
-1.8323619E-2 1.6304357E-3
5.0048097E-3 1.542487E-4
-5.209938E-3 -5.16775E-3
-1.904575E-2 2.2810486E-3
-5.5377046E-3 -1.4055452E-3
1.0252037E-2 1.3338498E-2
-1.0779393E-2 -2.8000576E-3
-1.3012258E-2 1.4800657E-4
1.1393806E-2 2.5790536E-3
-4.192279E-3 -2.959067E-4
1.4688604E-2 0
2.3518652E-3 -1.5727928E-3
-1.3256339E-2 4.6183118E-3
-1.309547E-2 -6.6547417E-3
-1.2375131E-2 5.463463E-3
-1.8827459E-2 5.0685513E-3
4.220746E-3 -2.8027515E-3
1.5168421E-2 -4.0538963E-3
-1.6803794E-2 4.6170535E-3
1.399656E-2 -4.2253435E-3
6.84287E-3 -1.9876517E-3
2.0054257E-2 -4.801128E-3
9.050737E-3 5.686051E-4
5.9416476E-3 -2.002145E-3
-6.8904194E-3 1.2752078E-3
1.8242741E-2 -3.6438662E-3
-1.0601346E-2 3.1603763E-3
9.157477E-3 -2.0048614E-3
-9.918809E-3 1.16341056E-4
1.4856887E-2 -3.4821662E-3
-1.0392639E-2 1.963792E-3
3.6771481E-3 4.97602E-3
2.1020254E-2 -7.027357E-3
-7.935144E-3 1.7663939E-3
1.7526524E-2 -3.0950143E-3
1.3033554E-2 -4.3605245E-3
-1.47284465E-2 3.3207329E-3
-4.9968217E-3 4.569575E-3
-1.8791758E-2 4.378982E-3
-1.004772E-2 2.9411525E-3
-1.343482E-2 -5.670247E-3
1.0954285E-2 -1.0438967E-3
1.5449057E-2 -3.495943E-3
1.584061E-2 -5.194946E-3
-3.5586278E-3 8.4902724E-4
-1.9128438E-2 5.057854E-3
-2.2257583E-3 -1.7366828E-3
-4.0612396E-4 5.22785E-4
-1.5689276E-2 2.9404724E-3
1.2719955E-2 2.814557E-3
1.4402828E-2 -5.0089383E-3
-9.54659E-3 2.440967E-3
-1.9160477E-2 5.3892382E-3
-8.761792E-3 2.3426332E-3
-1.892179E-2 5.388586E-3
-1.4680933E-2 -1.174287E-3
4.9837194E-3 -4.6676755E-4
5.183472E-3 -2.704005E-3
1.0510557E-2 9.42566E-3
-1.2181509E-2 1.0599901E-4
1.2144366E-2 -3.6627476E-3
4.8423908E-4 1.8781319E-3
2.038976E-2 -6.369014E-3
-5.7170107E-3 1.0592552E-3
7.186196E-3 4.5789885E-3
2.1048708E-2 -7.2853565E-3
6.630282E-3 2.2917216E-4
-1.4922538E-2 -1.260688E-2
1.2921952E-2 5.188291E-4
1.4728541E-2 -3.3770145E-3
-1.3564624E-2 -1.1652887E-4
4.829966E-3 -6.9813E-4
5.449767E-4 0
-2.6170472E-3 -6.799715E-4
-1.3842193E-3 -2.4677308E-3
-2.5664477E-3 -4.5029426E-4
-3.5572764E-3 -1.204413E-3
9.759111E-4 3.1770587E-6
2.8627648E-3 9.7508024E-4
-3.184913E-3 -1.060019E-3
2.6934901E-3 8.2215114E-4
1.308475E-3 4.1445254E-4
3.7250705E-3 1.3785916E-3
1.3882744E-3 1.0601564E-3
1.1657277E-3 3.1563293E-4
-1.2398029E-3 -5.336168E-4
3.3111048E-3 1.3699172E-3
-2.0358337E-3 -6.2912353E-4
1.680921E-3 6.5953523E-4
-1.600607E-3 -1.0434357E-3
2.751665E-3 1.0332651E-3
-1.8742913E-3 -7.98367E-4
5.5955374E-5 1.1904686E-3
4.1181166E-3 1.1255741E-3
-1.4596729E-3 -5.668353E-4
3.1376593E-3 1.3811074E-3
2.5537729E-3 6.973921E-4
-2.7138144E-3 -1.0453602E-3
-1.2893564E-3 1.9661894E-4
-3.4777243E-3 -1.3110007E-3
-1.9237163E-3 -6.049444E-4
-1.5439697E-3 -2.3464344E-3
1.8657206E-3 1.0057947E-3
2.847956E-3 1.0944665E-3
3.0925712E-3 8.6435647E-4
-6.606997E-4 -2.451007E-4
-3.6043222E-3 -1.2383533E-3
-1.704206E-4 -5.163936E-4
-1.2100411E-4 4.0219667E-5
-2.8269405E-3 -1.209127E-3
1.7352843E-3 1.812651E-3
2.8424435E-3 7.401873E-4
-1.78992E-3 -6.3137274E-4
-3.6449356E-3 -1.1887245E-3
-1.653733E-3 -5.6308473E-4
-3.606648E-3 -1.1632714E-3
-2.224899E-3 -1.7599924E-3
8.479474E-4 4.5889887E-4
1.1194845E-3 1.2207234E-4
6.736378E-4 2.6346145E-3
-1.9617917E-3 -1.2873719E-3
2.3366858E-3 7.1390637E-4
-1.2356843E-4 3.5256724E-4
3.946672E-3 1.1634743E-3
-1.0287993E-3 -4.4255052E-4
6.6031876E-4 1.5026317E-3
4.150298E-3 1.0873112E-3
1.0370684E-3 7.4663607E-4
-1.0394307E-3 -3.6163914E-3
2.0134437E-3 1.4666996E-3
2.7198559E-3 1.0363589E-3
-2.1594216E-3 -1.4711E-3
8.481025E-4 4.0539104E-4
1.3415797E-2 0
9.726202E-3 1.0123255E-2
1.2886243E-2 -1.0398062E-3
1.8585248E-2 1.3453041E-3
-4.690413E-3 1.202395E-3
-1.4963973E-2 -1.1105658E-3
1.6616948E-2 1.116506E-3
-1.3960284E-2 -5.8738654E-4
-6.800578E-3 -3.5765927E-4
-1.960834E-2 -1.972373E-3
-7.989434E-3 -3.3588447E-3
-5.9917895E-3 -6.1222214E-5
6.6194884E-3 1.0155846E-3
-1.7609602E-2 -2.4472254E-3
1.0561292E-2 4.8100608E-4
-8.894902E-3 -1.0698744E-3
8.988219E-3 3.0136216E-3
-1.4503057E-2 -1.5285969E-3
9.996712E-3 1.495292E-3
-1.7540613E-3 -5.6469645E-3
-2.1180103E-2 -2.669454E-4
7.716779E-3 9.007696E-4
-1.6790656E-2 -2.7173713E-3
-1.3133682E-2 -1.6260437E-4
1.4336384E-2 1.6339057E-3
5.94633E-3 -2.5529286E-3
1.8336218E-2 1.9564088E-3
9.9927215E-3 5.047849E-4
1.0342002E-2 9.341452E-3
-1.0214365E-2 -2.5020791E-3
-1.5041818E-2 -1.7023509E-3
-1.592938E-2 -2.9212463E-4
3.4785776E-3 3.5264474E-4
1.8853514E-2 1.4495899E-3
1.4626895E-3 2.2671523E-3
5.308946E-4 -3.4411767E-4
1.5083964E-2 2.2791862E-3
-1.05947135E-2 -6.5394533E-3
-1.4573311E-2 -7.935359E-6
9.383191E-3 7.986355E-4
1.8986622E-2 1.1605923E-3
8.644E-3 6.406291E-4
1.8771004E-2 1.0861342E-3
1.2880202E-2 5.675683E-3
-4.6445224E-3 -1.1457002E-3
-5.528217E-3 8.1058213E-4
-6.522122E-3 -1.181125E-2
1.1027034E-2 3.734381E-3
-1.2111808E-2 -5.127679E-4
1.5349046E-4 -1.8472498E-3
-2.0404095E-2 -6.628582E-4
5.4925983E-3 8.41543E-4
-5.045779E-3 -6.391943E-3
-2.1286901E-2 -4.30487E-5
-5.911717E-3 -2.291483E-3
9.503677E-3 1.6069464E-2
-1.1498823E-2 -4.5310888E-3
-1.4354164E-2 -1.5831417E-3
1.2205318E-2 4.3700826E-3
-4.5785047E-3 -8.885554E-4
1.4690092E-2 0
8.557672E-3 -1.0477505E-2
1.4489093E-2 -1.3048683E-2
-2.4931617E-3 4.4109924E-3
-1.1686609E-2 1.0486334E-2
1.2889467E-2 -1.1729325E-2
-1.0564174E-2 1.0108269E-2
-5.2001737E-3 4.872265E-3
-1.570399E-2 1.33660715E-2
-8.326698E-3 3.5935454E-3
-4.390132E-3 4.4768825E-3
5.565342E-3 -4.2586355E-3
-1.4613252E-2 1.1513611E-2
8.019696E-3 -7.6205903E-3
-7.2559398E-3 5.9362515E-3
8.7903E-3 -4.597486E-3
-1.166789E-2 9.835472E-3
8.375743E-3 -6.459233E-3
-5.5327322E-3 -2.7703694E-3
-1.5556609E-2 1.5788492E-2
6.274221E-3 -5.1698647E-3
-1.4223378E-2 1.0699802E-2
-9.644371E-3 9.792493E-3
1.1626518E-2 -9.633357E-3
2.3845963E-3 -6.3377907E-3
1.4769675E-2 -1.241773E-2
7.625436E-3 -7.17432E-3
1.4546605E-2 -1.0314601E-3
-9.293235E-3 5.8935657E-3
-1.2189592E-2 1.011604E-2
-1.1768934E-2 1.1808164E-2
2.7880014E-3 -2.3691945E-3
1.4762273E-2 -1.3175506E-2
2.7711638E-3 5.3993094E-4
1.2522534E-4 -6.5007986E-4
1.2655413E-2 -9.729648E-3
-1.2615492E-2 3.2535477E-3
-1.0571366E-2 1.0990936E-2
7.4052704E-3 -6.5013464E-3
1.4640703E-2 -1.3485463E-2
6.7501427E-3 -6.0581216E-3
1.4428199E-2 -1.3376744E-2
1.36206485E-2 -5.6043426E-3
-4.231711E-3 2.6740395E-3
-3.3962072E-3 4.7591235E-3
-1.3640916E-2 -3.6414904E-3
1.0812272E-2 -5.6133927E-3
-9.167757E-3 8.767546E-3
-1.2826149E-3 -1.4550419E-3
-1.5292766E-2 1.4915905E-2
4.61704E-3 -3.5344865E-3
-8.48131E-3 -8.266095E-4
-1.5465089E-2 1.6031401E-2
-6.014985E-3 2.7995645E-3
1.901564E-2 4.478803E-3
-1.1755488E-2 5.391795E-3
-1.1601104E-2 9.683577E-3
1.2146192E-2 -6.041627E-3
-3.9898143E-3 2.8106493E-3
1.2458183E-2 0
1.7747372E-2 2.7326716E-3
-4.598464E-3 7.9139776E-4
-1.4287232E-2 -2.226528E-3
1.5874501E-2 2.36035E-3
-1.3363712E-2 -1.646208E-3
-6.504422E-3 -8.7062805E-4
-1.8681478E-2 -3.4142856E-3
-7.413741E-3 -3.8454926E-3
-5.7505337E-3 -5.23206E-4
6.2794867E-3 1.4885478E-3
-1.6724832E-2 -3.715479E-3
1.0107132E-2 1.2805843E-3
-8.4608765E-3 -1.7170529E-3
8.399858E-3 3.5913084E-3
-1.381211E-2 -2.592335E-3
9.486224E-3 2.211075E-3
-1.2471498E-3 -5.560016E-3
-2.0323383E-2 -1.897995E-3
7.3423637E-3 1.4633116E-3
-1.5917273E-2 -3.9114878E-3
-1.2602661E-2 -1.1741257E-3
1.3643852E-2 2.6805687E-3
5.9094816E-3 -1.9912815E-3
1.7460806E-2 3.3003541E-3
9.559161E-3 1.2593567E-3
9.209758E-3 9.774291E-3
-9.617251E-3 -3.1949913E-3
-1.4316138E-2 -2.8009878E-3
-1.527797E-2 -1.5152175E-3
3.3139377E-3 6.08336E-4
1.7996969E-2 2.8536331E-3
1.2292353E-3 2.2910293E-3
5.3661014E-4 -2.8938692E-4
1.43119125E-2 3.35832E-3
-9.669666E-3 -7.10248E-3
-1.3997452E-2 -1.137143E-3
8.950914E-3 1.494366E-3
1.814722E-2 2.58636E-3
8.253148E-3 1.285305E-3
1.7945884E-2 2.4981296E-3
1.1931889E-2 6.4499443E-3
-4.372393E-3 -1.4604555E-3
-5.37283E-3 3.5011608E-4
-5.349234E-3 -1.1850535E-2
1.0302333E-2 4.4416385E-3
-1.1593983E-2 -1.431267E-3
2.9060495E-4 -1.7624379E-3
-1.9547319E-2 -2.2181354E-3
5.2105677E-3 1.234035E-3
-4.351195E-3 -6.5307156E-3
-2.0443318E-2 -1.6912144E-3
-5.500763E-3 -2.659227E-3
7.883062E-3 1.6171755E-2
-1.0693749E-2 -5.2434644E-3
-1.3664867E-2 -2.6331868E-3
1.1384836E-2 5.143571E-3
-4.3289117E-3 -1.2083439E-3
2.5881521E-2 0
-6.3771755E-3 2.136052E-3
-2.084134E-2 -3.794325E-5
2.3131844E-2 -1.1958255E-4
-1.9398442E-2 5.8618264E-4
-9.45688E-3 1.8647074E-4
-2.736172E-2 -7.661028E-4
-1.1404785E-2 -3.851932E-3
-8.306718E-3 5.160293E-4
9.271987E-3 7.4312865E-4
-2.4640432E-2 -1.6243552E-3
1.4679061E-2 -3.9271088E-4
-1.2429619E-2 -5.9016485E-4
1.2753808E-2 3.27353E-3
-2.024474E-2 -6.632723E-4
1.3998646E-2 1.06902E-3
-2.99621E-3 -7.6469914E-3
-2.9368108E-2 1.7540847E-3
1.07805785E-2 4.740392E-4
-2.3533018E-2 -2.080717E-3
-1.8210731E-2 1.0917548E-3
2.0024404E-2 8.2587305E-4
7.981602E-3 -4.132921E-3
2.5597813E-2 8.7155186E-4
1.3893792E-2 -3.0275478E-4
1.5263777E-2 1.1903883E-2
-1.4401122E-2 -2.4419224E-3
-2.1008523E-2 -8.4995304E-4
-2.2096677E-2 1.1926723E-3
4.854325E-3 1.397043E-4
2.6263615E-2 1.1756856E-4
2.2536456E-3 2.994069E-3
7.0095464E-4 -5.299519E-4
2.1124752E-2 1.6448308E-3
-1.533289E-2 -7.996859E-3
-2.0189578E-2 1.450384E-3
1.307886E-2 1.6544627E-4
2.6419036E-2 -2.9613374E-4
1.20389955E-2 2.0680465E-5
2.6112866E-2 -3.7766114E-4
1.8412417E-2 6.571073E-3
-6.549064E-3 -1.1214262E-3
-7.5770975E-3 1.6772771E-3
-1.0219666E-2 -1.5708404E-2
1.5650509E-2 4.0675686E-3
-1.6830217E-2 5.0419243E-4
2.7396403E-5 -2.5744343E-3
-2.8332783E-2 1.1277988E-3
7.6934253E-3 6.150266E-4
-7.6310155E-3 -8.348944E-3
-2.9493604E-2 2.0749618E-3
-8.419437E-3 -2.5816374E-3
1.4777093E-2 2.1308431E-2
-1.6383981E-2 -5.123959E-3
-2.0043945E-2 -7.5376604E-4
1.734656E-2 4.8300666E-3
-6.431822E-3 -7.7181676E-4
1.7476209E-3 0
5.1321494E-3 1.7294252E-3
-5.709528E-3 -1.8796508E-3
4.8281313E-3 1.456556E-3
2.3455538E-3 7.345484E-4
6.678667E-3 2.446982E-3
2.4922178E-3 1.8903703E-3
2.0893544E-3 5.5842043E-4
-2.2232747E-3 -9.48341E-4
5.937312E-3 2.4338616E-3
-3.6493144E-3 -1.1147277E-3
3.0139359E-3 1.1712563E-3
-2.8723523E-3 -1.8591901E-3
4.9335384E-3 1.8342669E-3
-3.361021E-3 -1.4187404E-3
1.071416E-4 2.1314926E-3
7.381034E-3 1.9916021E-3
-2.617198E-3 -1.0065446E-3
5.6267814E-3 2.4549114E-3
4.577207E-3 1.2339597E-3
-4.865828E-3 -1.856147E-3
-2.307755E-3 3.5960978E-4
-6.2353387E-3 -2.327386E-3
-3.4484006E-3 -1.072083E-3
-2.7785262E-3 -4.1928515E-3
3.3468828E-3 1.7902392E-3
5.1063267E-3 1.9433013E-3
5.543027E-3 1.529808E-3
-1.1845698E-3 -4.350598E-4
-6.461621E-3 -2.1965557E-3
-3.0818928E-4 -9.237327E-4
-2.164523E-4 7.2728355E-5
-5.069362E-3 -2.1487505E-3
3.118009E-3 3.2358693E-3
5.0943904E-3 1.308912E-3
-3.2089606E-3 -1.1201892E-3
-6.534059E-3 -2.1074468E-3
-2.964687E-3 -9.98697E-4
-6.465348E-3 -2.0620897E-3
-3.994474E-3 -3.1387168E-3
1.521128E-3 8.168249E-4
2.0054167E-3 2.1207349E-4
1.2216688E-3 4.7139805E-3
-3.5205623E-3 -2.2939106E-3
4.188557E-3 1.2647979E-3
-2.1922345E-4 6.3207635E-4
7.0742434E-3 2.0604709E-3
-1.8448912E-3 -7.8649493E-4
1.1912186E-3 2.686972E-3
7.4384394E-3 1.922896E-3
1.8614718E-3 1.3309848E-3
-1.8824321E-3 -6.4699543E-3
3.6141032E-3 2.614739E-3
4.8765945E-3 1.8399924E-3
-3.8755368E-3 -2.6217676E-3
1.5210937E-3 7.210054E-4
1.678274E-2 0
-1.8626962E-2 1.3020831E-4
1.5619918E-2 -5.0046813E-4
7.6149697E-3 -1.6402187E-4
2.2034405E-2 5.767971E-4
9.189459E-3 3.0850845E-3
6.688307E-3 -4.2771577E-4
-7.4674445E-3 -5.848182E-4
1.9844323E-2 1.271903E-3
-1.1819879E-2 3.3775478E-4
1.0009933E-2 4.570133E-4
-1.0274923E-2 -2.617343E-3
1.630324E-2 5.0442707E-4
-1.1274109E-2 -8.403157E-4
2.4239374E-3 6.15342E-3
2.3646373E-2 -1.4555483E-3
-8.681857E-3 -3.659194E-4
1.8953234E-2 1.6410165E-3
1.4662764E-2 -9.058442E-4
-1.612605E-2 -6.356853E-4
-6.421201E-3 3.3397751E-3
-2.0614156E-2 -6.6429743E-4
-1.1187663E-2 2.6416525E-4
-1.2308754E-2 -9.563336E-3
1.160022E-2 1.9452682E-3
1.6918557E-2 6.536332E-4
1.7791806E-2 -9.928062E-4
-3.909196E-3 -1.0538144E-4
-2.11492E-2 -5.616871E-5
-1.8191589E-3 -2.4076984E-3
-5.636734E-4 4.2777637E-4
-1.7013319E-2 -1.2935455E-3
1.2358676E-2 6.4170677E-3
1.6255721E-2 -1.1975351E-3
-1.0532117E-2 -1.140528E-4
-2.1273741E-2 2.77197E-4
-9.694545E-3 9.96824E-7
-2.1027079E-2 3.4239815E-4
-1.4836407E-2 -5.2644247E-3
5.2753394E-3 8.934378E-4
6.0990704E-3 -1.3617515E-3
8.252513E-3 1.2634357E-2
-1.2608683E-2 -3.2525035E-3
1.3551951E-2 -4.3067956E-4
-1.8287034E-5 2.0731275E-3
2.2813588E-2 -9.497088E-4
-6.1961054E-3 -4.839766E-4
6.1571873E-3 6.7118783E-3
2.3746964E-2 -1.7141232E-3
6.7836163E-3 2.0665443E-3
-1.1930633E-2 -1.7137153E-2
1.3200868E-2 4.1020964E-3
1.6141681E-2 5.775912E-4
-1.39755625E-2 -3.864026E-3
5.180417E-3 6.1208353E-4
2.067485E-2 0
-1.7340241E-2 4.342774E-4
-8.453035E-3 1.2296536E-4
-2.4451245E-2 -8.1113284E-4
-1.0175332E-2 -3.4953943E-3
-7.4265893E-3 4.2282592E-4
8.283489E-3 7.070185E-4
-2.2015106E-2 -1.5656312E-3
1.312136E-2 -2.831663E-4
-1.1106359E-2 -5.8489485E-4
1.1383707E-2 2.9846749E-3
-1.8090855E-2 -6.863446E-4
1.2506478E-2 1.0201255E-3
-2.642558E-3 -6.848412E-3
-2.6256118E-2 1.4320372E-3
9.63305E-3 4.7348705E-4
-2.1023232E-2 -1.9683924E-3
-1.6281052E-2 8.916249E-4
1.7893177E-2 8.30653E-4
7.1527245E-3 -3.6569578E-3
2.2874251E-2 8.9722953E-4
1.2419102E-2 -2.0639488E-4
1.358714E-2 1.0709727E-2
-1.2859852E-2 -2.2490297E-3
-1.8772632E-2 -8.5672084E-4
-1.9754613E-2 9.6386706E-4
4.3379515E-3 1.4729092E-4
2.3472803E-2 2.2642581E-4
2.0003826E-3 2.686389E-3
6.2893314E-4 -4.7041057E-4
1.887284E-2 1.5676874E-3
-1.36669595E-2 -7.21811E-3
-1.805132E-2 1.2030103E-3
1.1688585E-2 2.0829879E-4
2.361362E-2 -1.4260686E-4
1.0759867E-2 7.410827E-5
2.3340356E-2 -2.1688623E-4
1.6425904E-2 5.958029E-3
-5.8481037E-3 -1.0325442E-3
-6.7798495E-3 1.4640724E-3
-9.061341E-3 -1.4086748E-2
1.396899E-2 3.7077384E-3
-1.5044488E-2 3.7286448E-4
3.6380716E-5 -2.3007973E-3
-2.5327895E-2 8.7707286E-4
6.873227E-3 5.8523234E-4
-6.781714E-3 -7.4972026E-3
-2.6369764E-2 1.7182442E-3
-7.51302E-3 -2.3462633E-3
1.3108709E-2 1.9112883E-2
-1.4619658E-2 -4.655285E-3
-1.7910976E-2 -7.662961E-4
1.548133E-2 4.397064E-3
-5.7449336E-3 -7.19536E-4
1.4552589E-2 0
7.0922435E-3 7.4424315E-5
2.0490512E-2 1.1939075E-3
8.460751E-3 3.1453625E-3
6.2376503E-3 -1.986328E-4
-6.9326092E-3 -7.6698035E-4
1.8431444E-2 1.7755433E-3
-1.1010989E-2 -3.812089E-5
9.302748E-3 7.238486E-4
-9.484956E-3 -2.742398E-3
1.5158597E-2 9.5564616E-4
-1.0467904E-2 -1.1182915E-3
2.072493E-3 5.7993517E-3
2.2051398E-2 -6.495536E-4
-8.069408E-3 -5.9946283E-4
1.7591089E-2 2.0925093E-3
1.367384E-2 -4.0583088E-4
-1.4989771E-2 -1.072526E-3
-6.07589E-3 2.9168897E-3
-1.916606E-2 -1.2329936E-3
-1.0420384E-2 -8.775866E-5
-1.11707365E-2 -9.267775E-3
1.073847E-2 2.15641E-3
1.5726835E-2 1.1128632E-3
1.6588675E-2 -3.934585E-4
-3.6351976E-3 -2.1465392E-4
-1.9682162E-2 -6.829552E-4
-1.6213167E-3 -2.2951246E-3
-5.3737476E-4 3.8132814E-4
-1.5795944E-2 -1.7112641E-3
1.13110235E-2 6.34099E-3
1.5165125E-2 -6.298089E-4
-9.798979E-3 -4.202227E-4
-1.980802E-2 -3.7640132E-4
-9.022871E-3 -2.8816785E-4
-1.958039E-2 -3.0836154E-4
-1.3651452E-2 -5.3420984E-3
4.8831855E-3 9.888472E-4
5.7170936E-3 -1.0855232E-3
7.3039606E-3 1.2005056E-2
-1.1638076E-2 -3.4031444E-3
1.2625824E-2 3.2854505E-6
-7.8841455E-5 1.9289418E-3
2.1261228E-2 -2.0359548E-4
-5.7523637E-3 -6.352141E-4
5.5304244E-3 6.4304434E-3
2.2152727E-2 -8.872119E-4
6.2519764E-3 2.1256504E-3
-1.0592961E-2 -1.6305551E-2
1.2163895E-2 4.21153E-3
1.5006051E-2 1.0189234E-3
-1.2892013E-2 -4.0130573E-3
4.80323E-3 7.241563E-4
3.4568047E-3 0
9.992212E-3 4.770624E-4
4.139456E-3 1.4896312E-3
3.0389198E-3 -1.2870455E-4
-3.3825485E-3 -3.3833538E-4
8.991695E-3 7.7105424E-4
-5.36643E-3 3.7733822E-5
4.5374213E-3 3.051938E-4
-4.6365443E-3 -1.2880075E-3
7.3924707E-3 3.8821317E-4
-5.10728E-3 -4.914678E-4
1.0396938E-3 2.8157306E-3
1.0743487E-2 -4.293358E-4
-3.9357133E-3 -2.5088142E-4
8.583766E-3 9.298261E-4
6.661908E-3 -2.6771298E-4
-7.310791E-3 -4.460384E-4
-2.9461838E-3 1.4526274E-3
-9.346937E-3 -5.028843E-4
-5.078851E-3 1.05220515E-5
-5.4914854E-3 -4.4595464E-3
5.24445E-3 9.960139E-4
7.670206E-3 4.6192692E-4
8.082524E-3 -2.7659032E-4
-1.7727211E-3 -8.6021115E-5
-9.595647E-3 -2.3218225E-4
-8.018907E-4 -1.1102435E-3
-2.5994083E-4 1.8858952E-4
-7.7069486E-3 -7.5320585E-4
5.5448874E-3 3.0324522E-3
7.387544E-3 -3.8449615E-4
-4.7777086E-3 -1.54683E-4
-9.655416E-3 -8.2138446E-5
-4.398794E-3 -9.429468E-5
-9.544132E-3 -5.0143444E-5
-6.6803927E-3 -2.53367E-3
2.3848906E-3 4.56944E-4
2.7806894E-3 -5.5827084E-4
3.6210006E-3 5.813343E-3
-5.689252E-3 -1.5990123E-3
6.1532455E-3 -6.29692E-5
-2.85587E-5 9.404782E-4
1.0360676E-2 -2.0795623E-4
-2.8066789E-3 -2.8015478E-4
2.7281537E-3 3.1056101E-3
1.0791654E-2 -5.4567796E-4
3.0577881E-3 1.003968E-3
-5.245898E-3 -7.8923805E-3
5.949646E-3 1.9902927E-3
7.3184506E-3 4.1983146E-4
-6.3034813E-3 -1.8898422E-3
2.3445706E-3 3.2835506E-4
2.8949248E-2 0
1.2171058E-2 3.7346436E-3
8.766515E-3 -7.914238E-4
-9.824261E-3 -5.111749E-4
2.6097734E-2 9.878896E-4
-1.5506951E-2 8.4967696E-4
1.3157954E-2 2.5599595E-4
-1.3580113E-2 -3.0832295E-3
2.1422194E-2 1.0195504E-4
-1.483089E-2 -7.1579445E-4
3.3939208E-3 7.995645E-3
3.0995786E-2 -2.7237083E-3
-1.1411165E-2 -1.8204098E-4
2.494049E-2 1.5031307E-3
1.921991E-2 -1.6932378E-3
-2.1194069E-2 -2.8037708E-4
-8.315743E-3 4.605546E-3
-2.7087582E-2 -1.6369273E-4
-1.4679435E-2 7.3133095E-4
-1.6489092E-2 -1.2132868E-2
1.5297023E-2 2.1553005E-3
2.2235185E-2 2.7670295E-4
2.3325108E-2 -1.9149526E-3
-5.1360857E-3 -4.0045516E-6
-2.7769148E-2 6.531202E-4
-2.47116E-3 -3.098595E-3
-7.253564E-4 5.8100896E-4
-2.2381593E-2 -1.1136006E-3
1.6446507E-2 8.000351E-3
2.1301312E-2 -2.1309517E-3
-1.3831754E-2 2.1223052E-4
-2.7921205E-2 1.0950838E-3
-1.2728133E-2 3.3449513E-4
-2.7595116E-2 1.1722097E-3
-1.9659953E-2 -6.4018676E-3
6.956807E-3 9.917074E-4
7.960794E-3 -1.9974872E-3
1.1269117E-2 1.630428E-2
-1.6665984E-2 -3.836938E-3
1.7777832E-2 -1.0312079E-3
4.7240792E-5 2.72248E-3
2.9919788E-2 -2.0309605E-3
-8.151627E-3 -4.2247245E-4
8.314575E-3 8.60055E-3
3.1118961E-2 -3.0666534E-3
8.977374E-3 2.4800661E-3
-1.625295E-2 -2.2089684E-2
1.7472673E-2 4.9320334E-3
2.1212596E-2 2.0356642E-4
-1.8481605E-2 -4.5928396E-3
6.8225125E-3 6.255741E-4
5.59884E-3 0
3.583585E-3 -1.4636745E-3
-4.1963332E-3 1.0524823E-3
1.1099647E-2 -2.9514437E-3
-6.4099343E-3 2.3577262E-3
5.56499E-3 -1.589835E-3
-6.107209E-3 4.5564954E-4
9.01963E-3 -2.7207395E-3
-6.3276547E-3 1.612343E-3
2.4583882E-3 2.92375E-3
1.2680102E-2 -5.143782E-3
-4.8210514E-3 1.3955804E-3
1.0679579E-2 -2.5855303E-3
7.862139E-3 -3.1913784E-3
-8.946739E-3 2.6162965E-3
-2.9020205E-3 3.0090837E-3
-1.140948E-2 3.4256554E-3
-6.0772905E-3 2.2012151E-3
-8.497687E-3 -2.9737887E-3
6.709336E-3 -1.0672692E-3
9.383978E-3 -2.7521518E-3
9.559474E-3 -3.8141909E-3
-2.1598677E-3 6.6090527E-4
-1.1590654E-2 3.8569917E-3
-1.4386825E-3 -9.839383E-4
-2.3000571E-4 3.3784783E-4
-9.553497E-3 2.4191844E-3
7.94666E-3 1.2418595E-3
8.680749E-3 -3.6439206E-3
-5.7878694E-3 1.8736146E-3
-1.1597568E-2 4.0624226E-3
-5.3081037E-3 1.7826441E-3
-1.145052E-2 4.0527806E-3
-9.091467E-3 -1.5525715E-4
3.0527695E-3 -4.805329E-4
3.0892468E-3 -1.866793E-3
6.841205E-3 5.400977E-3
-7.501826E-3 5.3686765E-4
7.3412564E-3 -2.7270059E-3
3.7107922E-4 1.138511E-3
1.2317093E-2 -4.7137206E-3
-3.4816694E-3 8.739945E-4
4.6052025E-3 2.543272E-3
1.2687647E-2 -5.3038565E-3
4.094279E-3 -1.154524E-4
-9.682901E-3 -7.1903705E-3
7.982256E-3 -1.8052795E-4
8.9446185E-3 -2.6509797E-3
-8.362681E-3 4.5329283E-4
2.9490746E-3 -6.171407E-4
2.6763442E-3 0
-2.961043E-3 -4.2337464E-4
7.876002E-3 1.0126242E-3
-4.7191E-3 -1.6663199E-4
3.9775404E-3 4.372379E-4
-4.028088E-3 -1.3049323E-3
6.484359E-3 6.165211E-4
-4.471575E-3 -6.2221073E-4
8.0917176E-4 2.5140538E-3
9.460717E-3 2.256949E-5
-3.4505934E-3 -3.6708833E-4
7.5114756E-3 1.1370144E-3
5.866533E-3 1.2687709E-5
-6.4104E-3 -6.6431507E-4
-2.6441112E-3 1.1673296E-3
-8.198285E-3 -7.9009926E-4
-4.465272E-3 -1.7984681E-4
-4.6615945E-3 -4.1249027E-3
4.573378E-3 1.0708709E-3
6.725775E-3 6.9166505E-4
7.1157445E-3 5.7776557E-5
-1.5552184E-3 -1.4162457E-4
-8.427008E-3 -5.613816E-4
-6.636152E-4 -1.0058851E-3
-2.3553883E-4 1.5611321E-4
-6.7472304E-3 -9.490998E-4
4.761674E-3 2.872315E-3
6.508797E-3 -6.296048E-5
-4.1943835E-3 -3.1386843E-4
-8.485138E-3 -4.3170145E-4
-3.8635237E-3 -2.466725E-4
-8.388499E-3 -3.9943107E-4
-5.7784817E-3 -2.4761066E-3
2.079574E-3 4.904999E-4
2.465324E-3 -3.8725158E-4
2.9668228E-3 5.2454E-3
-4.941957E-3 -1.6175351E-3
5.4117395E-3 1.737418E-4
-6.0122355E-5 8.2572276E-4
9.115941E-3 2.0293397E-4
-2.4569554E-3 -3.507864E-4
2.282725E-3 2.831756E-3
9.507393E-3 -7.791502E-5
2.6507596E-3 9.964489E-4
-4.3178825E-3 -7.133606E-3
5.1563038E-3 1.9712094E-3
6.4181094E-3 6.415616E-4
-5.4711057E-3 -1.8960766E-3
2.0489157E-3 3.7595458E-4
3.3430022E-3 0
-8.874009E-3 1.2557258E-4
5.2474597E-3 -5.621633E-4
-4.4698236E-3 1.454631E-4
4.66301E-3 8.0653693E-4
-7.271669E-3 3.436656E-4
5.0456724E-3 -1.8965447E-5
-1.2929502E-3 -2.6534854E-3
-1.0470683E-2 1.471634E-3
3.8757247E-3 -1.3971647E-4
-8.490385E-3 -6.971447E-5
-6.4925994E-3 9.139979E-4
7.197403E-3 -2.7908784E-4
2.7407203E-3 -1.7097815E-3
9.195373E-3 -4.227511E-4
4.9687214E-3 -5.073896E-4
5.810001E-3 3.82627E-3
-5.229279E-3 -4.61317E-4
-7.5506526E-3 2.9871808E-4
-7.88183E-3 1.0617273E-3
1.7430604E-3 -8.933208E-5
9.412248E-3 -7.1198115E-4
8.933304E-4 1.0079091E-3
2.358988E-4 -2.0998016E-4
7.615115E-3 -1.7292572E-5
-5.722578E-3 -2.424605E-3
-7.1912184E-3 1.0992938E-3
4.6902173E-3 -3.1625893E-4
9.456047E-3 -8.6465146E-4
4.3135323E-3 -3.3826355E-4
9.344022E-3 -8.850671E-4
6.784873E-3 1.8253995E-3
-2.378384E-3 -2.1370668E-4
-2.6663162E-3 8.1843906E-4
-4.1121994E-3 -5.3340597E-3
5.7235444E-3 1.0078273E-3
-6.014904E-3 6.638668E-4
-6.410429E-5 -9.230708E-4
-1.0117763E-2 1.2175424E-3
2.7738085E-3 -5.6752486E-7
-2.973512E-3 -2.7718798E-3
-1.0506429E-2 1.5901915E-3
-3.090367E-3 -6.8311987E-4
5.905678E-3 7.2093992E-3
-6.0166405E-3 -1.3652162E-3
-7.202334E-3 3.0548152E-4
6.353044E-3 1.2322919E-3
-2.3263444E-3 -9.1826325E-5
2.3560803E-2 0
-1.3950516E-2 1.2951551E-3
1.18706245E-2 -2.1823325E-4
-1.234768E-2 -2.3161108E-3
1.9315578E-2 -6.391175E-4
-1.3394467E-2 -1.3918555E-4
3.3324684E-3 7.0922524E-3
2.784974E-2 -3.5131485E-3
-1.0293372E-2 2.2529457E-4
2.2535132E-2 5.0398096E-4
1.726896E-2 -2.1823295E-3
-1.9116012E-2 4.7048565E-4
-7.3394747E-3 4.4356715E-3
-2.442503E-2 7.767904E-4
-1.3208547E-2 1.1602279E-3
-1.527894E-2 -1.0375086E-2
1.3863808E-2 1.4209937E-3
2.0054452E-2 -5.093248E-4
2.0962227E-2 -2.5222946E-3
-4.6303156E-3 1.7165807E-4
-2.5011584E-2 1.5364051E-3
-2.3334888E-3 -2.709054E-3
-6.340815E-4 5.48532E-4
-2.0214995E-2 -2.4014158E-4
1.5099528E-2 6.651078E-3
1.9130407E-2 -2.6479568E-3
-1.2462077E-2 6.633326E-4
-2.5133586E-2 1.9400243E-3
-1.1462991E-2 7.358933E-4
-2.483698E-2 1.9984264E-3
-1.79419E-2 -5.1003867E-3
6.3054007E-3 6.566237E-4
7.1084877E-3 -2.0723948E-3
1.0715486E-2 1.4313744E-2
-1.515531E-2 -2.8902735E-3
1.5991518E-2 -1.5362997E-3
1.3549186E-4 2.4527025E-3
2.6903367E-2 -2.8519186E-3
-7.3631043E-3 -1.0268558E-4
7.789078E-3 7.469658E-3
2.794908E-2 -3.8265174E-3
8.177729E-3 1.9294269E-3
-1.5405835E-2 -1.9359209E-2
1.5919909E-2 3.8499725E-3
1.9130092E-2 -5.4036145E-4
-1.6817888E-2 -3.509761E-3
6.1718393E-3 3.311374E-4
8.331392E-3 0
-7.0406753E-3 -5.233199E-4
7.183828E-3 2.0501465E-3
-1.147202E-2 -6.8336644E-4
7.923305E-3 8.187169E-4
-1.583311E-3 -4.38256E-3
-1.6683143E-2 5.492384E-4
6.1071613E-3 4.3243615E-4
-1.33155035E-2 -1.537184E-3
-1.0345034E-2 3.4288457E-4
1.1344585E-2 7.7224436E-4
4.589586E-3 -2.222935E-3
1.4504928E-2 8.827189E-4
7.8846505E-3 3.9104634E-5
8.47644E-3 6.9830553E-3
-8.130744E-3 -1.6034844E-3
-1.1902378E-2 -8.0083363E-4
-1.2550531E-2 3.411583E-4
2.7510778E-3 1.5289197E-4
1.4893989E-2 4.6518914E-4
1.2327561E-3 1.7323232E-3
4.055973E-4 -2.8993364E-4
1.1956237E-2 1.2534234E-3
-8.57492E-3 -4.7681816E-3
-1.14728045E-2 5.162604E-4
7.415346E-3 2.922863E-4
1.4988414E-2 2.3291026E-4
6.8277693E-3 1.944021E-4
1.4816003E-2 1.8202573E-4
1.0343151E-2 4.006254E-3
-3.697376E-3 -7.354042E-4
-4.3229056E-3 8.363203E-4
-5.557875E-3 -9.064305E-3
8.814683E-3 2.5444496E-3
-9.55314E-3 3.0587675E-5
5.460127E-5 -1.4597102E-3
-1.6086444E-2 2.0974135E-4
4.3541E-3 4.655564E-4
-4.2013535E-3 -4.8510074E-3
-1.6759189E-2 7.29325E-4
-4.7360277E-3 -1.591963E-3
8.057711E-3 1.230959E-2
-9.214653E-3 -3.1547253E-3
-1.1356764E-2 -7.3164375E-4
9.765053E-3 3.0026457E-3
-3.6361858E-3 -5.3533947E-4
5.9827906E-3 0
-6.1996705E-3 -1.2812957E-3
9.737675E-3 -1.4309438E-4
-6.7472365E-3 -1.941925E-4
1.613303E-3 3.6041522E-3
1.4064058E-2 -1.5120683E-3
-5.18819E-3 1.8167153E-5
1.1349194E-2 4.6265312E-4
8.720823E-3 -9.395673E-4
-9.635565E-3 5.9981267E-5
-3.7389284E-3 2.166839E-3
-1.2313241E-2 1.6513203E-4
-6.6656E-3 4.622121E-4
-7.601879E-3 -5.368795E-3
6.971832E-3 8.443526E-4
1.0108739E-2 -7.085769E-5
1.0584748E-2 -1.0766425E-3
-2.3344785E-3 4.359788E-5
-1.2615802E-2 5.42415E-4
-1.1505873E-3 -1.386515E-3
-3.245497E-4 2.704933E-4
-1.0182683E-2 -3.0823293E-4
7.545979E-3 3.4908683E-3
9.662987E-3 -1.1569221E-3
-6.284904E-3 2.1877562E-4
-1.2681007E-2 7.4464025E-4
-5.7822075E-3 2.645881E-4
-1.253211E-2 7.768118E-4
-8.992414E-3 -2.7359123E-3
3.1707638E-3 3.8923035E-4
3.6006605E-3 -9.782907E-4
5.266194E-3 7.3109376E-3
-7.608919E-3 -1.5965813E-3
8.071226E-3 -6.2591064E-4
4.5546483E-5 1.2369985E-3
1.3581122E-2 -1.1876863E-3
-3.708797E-3 -1.199371E-4
3.855178E-3 3.8355794E-3
1.411701E-2 -1.6690321E-3
4.1023083E-3 1.0478486E-3
-7.5825965E-3 -9.896435E-3
7.985258E-3 2.0871882E-3
9.643307E-3 -9.505683E-5
-8.440836E-3 -1.924097E-3
3.1064865E-3 2.2400368E-4
6.6988184E-3 0
-1.0060025E-2 2.233737E-3
7.0334165E-3 -1.2437797E-3
-2.4436642E-3 -3.3892938E-3
-1.4250058E-2 4.5788893E-3
5.3723743E-3 -1.1299467E-3
-1.1859692E-2 1.9511591E-3
-8.835736E-3 2.8413092E-3
9.972015E-3 -2.1257424E-3
3.4104087E-3 -3.0461305E-3
1.2724238E-2 -2.808165E-3
6.808243E-3 -1.9064961E-3
9.027252E-3 3.9353715E-3
-7.4053947E-3 6.181513E-4
-1.0460012E-2 2.2383493E-3
-1.0737873E-2 3.382538E-3
2.4097676E-3 -5.4513855E-4
1.2956966E-2 -3.2639224E-3
1.4892378E-3 1.190363E-3
2.78385E-4 -3.4980557E-4
1.0617824E-2 -1.861353E-3
-8.567142E-3 -2.0013407E-3
-9.765506E-3 3.2683206E-3
6.465882E-3 -1.5727038E-3
1.2981226E-2 -3.4874433E-3
5.9351507E-3 -1.5125178E-3
1.2820043E-2 -3.4888934E-3
9.904326E-3 9.092439E-4
-3.369065E-3 2.7572174E-4
-3.5216725E-3 1.7848843E-3
-7.022833E-3 -6.448136E-3
8.226676E-3 2.4905343E-5
-8.229766E-3 2.3771627E-3
-3.1211757E-4 -1.272086E-3
-1.3819087E-2 4.139322E-3
3.8689293E-3 -6.700042E-4
-4.8163715E-3 -3.148983E-3
-1.4271314E-2 4.7528837E-3
-4.4754306E-3 -2.0726873E-4
9.976925E-3 8.63127E-3
-8.721728E-3 -4.5269905E-4
-9.972525E-3 2.163747E-3
9.158893E-3 1.8612728E-4
-3.2670721E-3 4.3317216E-4
1.58526E-2 0
-1.0977252E-2 -4.7744927E-4
2.5396314E-3 5.904755E-3
2.2927025E-2 -2.124684E-3
-8.444805E-3 -9.452028E-5
1.8461043E-2 1.0244669E-3
1.4216605E-2 -1.3206705E-3
-1.5684418E-2 -1.3283406E-4
-6.137358E-3 3.4373514E-3
-2.0045156E-2 -2.5732881E-5
-1.0860079E-2 5.9287704E-4
-1.2244518E-2 -8.920146E-3
1.1327256E-2 1.5410304E-3
1.6454821E-2 1.2644916E-4
1.7253635E-2 -1.4991964E-3
-3.8006734E-3 1.5125278E-5
-2.054663E-2 5.8110186E-4
-1.8395501E-3 -2.2842304E-3
-5.3471123E-4 4.3249628E-4
-1.6566107E-2 -7.452305E-4
1.2198449E-2 5.862269E-3
1.5755285E-2 -1.651906E-3
-1.0234632E-2 2.0576206E-4
-2.0657597E-2 9.086872E-4
-9.417532E-3 2.9235025E-4
-2.0416021E-2 9.64611E-4
-1.4570744E-2 -4.6680877E-3
5.1514707E-3 7.093542E-4
5.883884E-3 -1.5061601E-3
8.396471E-3 1.202534E-2
-1.2346197E-2 -2.780606E-3
1.3151812E-2 -8.2569575E-4
4.4545934E-5 2.0144454E-3
2.2133233E-2 -1.6082658E-3
-6.033622E-3 -2.839172E-4
6.1830045E-3 6.3350503E-3
2.3016965E-2 -2.3788942E-3
6.6519133E-3 1.8036109E-3
-1.2104842E-2 -1.6288936E-2
1.2946997E-2 3.5881258E-3
1.5697856E-2 7.593009E-5
-1.3692403E-2 -3.3335728E-3
5.0508035E-3 4.3889155E-4
7.6156612E-3 0
-1.9364269E-3 -4.012304E-3
-1.5811998E-2 2.1617697E-3
5.850516E-3 -1.8888943E-4
-1.2814342E-2 -1.5338956E-4
-9.8046195E-3 1.3426848E-3
1.0864794E-2 -3.804017E-4
4.1463342E-3 -2.5650652E-3
1.3881194E-2 -5.8590184E-4
7.5022876E-3 -7.376265E-4
8.747466E-3 5.8080414E-3
-7.890057E-3 -7.259434E-4
-1.1398073E-2 4.080265E-4
-1.1902257E-2 1.5577751E-3
2.6313493E-3 -1.249424E-4
1.4210167E-2 -1.0212124E-3
1.3426067E-3 1.526329E-3
3.572389E-4 -3.1558974E-4
1.1493771E-2 1.7101853E-5
-8.623469E-3 -3.691979E-3
-1.0860113E-2 1.6183931E-3
7.0808507E-3 -4.5072846E-4
1.4277141E-2 -1.251393E-3
6.5124356E-3 -4.8607774E-4
1.41081745E-2 -1.2828424E-3
1.0230214E-2 2.7936106E-3
-3.5885388E-3 -3.360455E-4
-4.0289774E-3 1.220163E-3
-6.1763795E-3 -8.074152E-3
8.6329635E-3 1.5536085E-3
-9.082203E-3 9.6786633E-4
-9.1517315E-5 -1.3935764E-3
-1.5277889E-2 1.7802651E-3
4.186578E-3 1.4879886E-5
-4.472267E-3 -4.2005335E-3
-1.5866624E-2 2.3405086E-3
-4.660489E-3 -1.0485813E-3
8.872679E-3 1.0914822E-2
-9.073312E-3 -2.094687E-3
-1.0872385E-2 4.2021036E-4
9.581809E-3 1.8959694E-3
-3.5106859E-3 -1.5179352E-4
2.6062517E-3 0
2.8815751E-3 -8.880208E-3
-1.3880888E-3 3.1303673E-3
3.339104E-3 -6.712222E-3
1.7856193E-3 -5.506958E-3
-2.5621662E-3 5.8208304E-3
2.9711775E-4 2.8367087E-3
-3.2208764E-3 7.462271E-3
-1.5189816E-3 4.140129E-3
-5.2841706E-3 3.1317885E-3
2.3886599E-3 -3.972284E-3
2.6832088E-3 -6.108813E-3
2.2056634E-3 -6.6667865E-3
-6.032449E-4 1.4180929E-3
-3.0751806E-3 7.7462755E-3
-1.1455284E-3 3.1925287E-4
7.543336E-5 2.6845568E-4
-2.9315203E-3 6.0511334E-3
4.1377963E-3 -3.60451E-3
1.9087418E-3 -6.133147E-3
-1.5629753E-3 3.8451457E-3
-2.9709397E-3 7.840089E-3
-1.3998211E-3 3.554665E-3
-2.9114077E-3 7.759066E-3
-4.0730378E-3 4.6794503E-3
1.0894996E-3 -1.8051723E-3
3.816025E-4 -2.4329124E-3
5.8243214E-3 -1.2010125E-3
-3.0136122E-3 4.153234E-3
1.7994039E-3 -5.0310483E-3
7.574744E-4 3.0612753E-4
2.9467624E-3 -8.501806E-3
-1.0723565E-3 2.2019113E-3
3.350206E-3 -1.2881439E-3
2.8012963E-3 -8.954435E-3
1.737462E-3 -2.1887524E-3
-8.00651E-3 1.8992616E-3
3.4106465E-3 -4.2476524E-3
2.5431237E-3 -5.834952E-3
-3.4352469E-3 4.566081E-3
9.7263104E-4 -1.8110051E-3
3.3443265E-2 0
-1.2200739E-2 -1.2685374E-3
2.6562208E-2 3.955935E-3
2.0737952E-2 -4.6215723E-6
-2.2665985E-2 -2.2942566E-3
-9.336933E-3 4.1487385E-3
-2.8987113E-2 -2.7238172E-3
-1.578599E-2 -5.980922E-4
-1.6513243E-2 -1.4541976E-2
1.6175648E-2 3.746898E-3
2.3781046E-2 2.3882762E-3
2.5154224E-2 1.4422997E-4
-5.4987995E-3 -4.8751957E-4
-2.979371E-2 -1.9133862E-3
-2.3543227E-3 -3.5501476E-3
-8.312993E-4 5.5383716E-4
-2.3859061E-2 -3.298113E-3
1.6856456E-2 1.0113308E-2
2.300768E-2 -2.7744984E-4
-1.4829544E-2 -1.0741353E-3
-2.9998101E-2 -1.4544853E-3
-1.3659406E-2 -8.3939265E-4
-2.965621E-2 -1.3412266E-3
-2.044747E-2 -8.704161E-3
7.355307E-3 1.7163513E-3
8.711509E-3 -1.3897009E-3
1.0531777E-2 1.8517157E-2
-1.7483167E-2 -5.676216E-3
1.9131642E-2 5.6853116E-4
-2.055658E-4 2.9193878E-3
3.2226022E-2 6.4048555E-4
-8.688149E-3 -1.2192897E-3
8.093177E-3 9.990839E-3
3.3607416E-2 -3.5560026E-4
9.378681E-3 3.5000343E-3
-1.5323616E-2 -2.5180459E-2
1.8243853E-2 6.924627E-3
2.2693047E-2 2.2137586E-3
-1.9356024E-2 -6.6563794E-3
7.245966E-3 1.3116987E-3
4.4991784E-3 0
-9.840452E-3 -4.3566874E-4
-7.565424E-3 7.882978E-4
8.356005E-3 -2.275585E-5
3.2489249E-3 -1.8676983E-3
1.0678367E-2 -1.0581047E-4
5.7817157E-3 -3.8058334E-4
6.575937E-3 4.6788254E-3
-6.043308E-3 -7.5338077E-4
-8.766368E-3 3.0750783E-5
-9.182209E-3 9.015078E-4
2.0245586E-3 -3.0718726E-5
1.0941888E-2 -4.320658E-4
9.935625E-4 1.2058595E-3
2.8226618E-4 -2.335824E-4
8.82934E-3 2.982153E-4
-6.533164E-3 -3.0501445E-3
-8.383116E-3 9.7392354E-4
5.450843E-3 -1.7063472E-4
1.0999047E-2 -6.072347E-4
5.0150505E-3 -2.1188904E-4
1.0870025E-2 -6.3558575E-4
7.7897836E-3 2.3998497E-3
-2.7484589E-3 -3.471632E-4
-3.1254117E-3 8.374259E-4
-4.5445673E-3 -6.3559306E-3
6.5934965E-3 1.407637E-3
-7.001152E-3 5.182718E-4
-3.5741035E-5 -1.0728455E-3
-1.178096E-2 9.887049E-4
3.2158508E-3 1.1526976E-4
-3.3315076E-3 -3.3378655E-3
-1.2247137E-2 1.4044933E-3
-3.5542808E-3 -9.211361E-4
6.5454673E-3 8.60507E-3
-6.9183623E-3 -1.8342274E-3
-8.362825E-3 5.3149535E-5
7.3139286E-3 1.6941801E-3
-2.69322E-3 -2.0368576E-4
2.1564892E-2 0
1.6470509E-2 -2.4567207E-3
-1.827377E-2 8.58907E-4
-6.9250846E-3 4.3995697E-3
-2.334512E-2 1.2654419E-3
-1.2608722E-2 1.3922594E-3
-1.4835733E-2 -9.596601E-3
1.3290672E-2 1.062578E-3
1.9170528E-2 -9.161299E-4
1.9995725E-2 -2.8608877E-3
-4.4250716E-3 2.6323073E-4
-2.3889892E-2 2.0045345E-3
-2.2898533E-3 -2.5412058E-3
-5.9474463E-4 5.382162E-4
-1.9340113E-2 2.0272363E-4
1.4584471E-2 6.0385475E-3
1.824096E-2 -2.941895E-3
-1.1905377E-2 9.010275E-4
-2.3997948E-2 2.3931928E-3
-1.0948232E-2 9.4905857E-4
-2.3713008E-2 2.4427078E-3
-1.7269937E-2 -4.4945637E-3
6.0449536E-3 4.931625E-4
6.7547048E-3 -2.1342323E-3
1.0555187E-2 1.3461414E-2
-1.4557379E-2 -2.440269E-3
1.5262497E-2 -1.8114893E-3
1.8205833E-4 2.3430309E-3
2.5671182E-2 -3.3032459E-3
-7.044763E-3 5.928596E-5
7.609776E-3 6.9778683E-3
2.6650522E-2 -4.257787E-3
7.863001E-3 1.6705063E-3
-1.514928E-2 -1.8186904E-2
1.5309224E-2 3.3418345E-3
1.8285744E-2 -9.2604366E-4
-1.616083E-2 -2.997225E-3
5.910244E-3 1.8470234E-4
1.2859471E-2 0
-1.4054713E-2 -1.4257856E-3
-5.790345E-3 2.5713157E-3
-1.7974343E-2 -1.6930271E-3
-9.788709E-3 -3.730552E-4
-1.0237746E-2 -9.019667E-3
1.0029898E-2 2.3256626E-3
1.47461435E-2 1.4842419E-3
1.5597952E-2 9.291242E-5
-3.4097026E-3 -3.0306756E-4
-1.8474622E-2 -1.1905958E-3
-1.4594098E-3 -2.2017492E-3
-5.155599E-4 3.43316E-4
-1.4794393E-2 -2.0484352E-3
1.0451183E-2 6.273526E-3
1.4266952E-2 -1.6886504E-4
-9.195556E-3 -6.6811364E-4
-1.8601427E-2 -9.0606214E-4
-8.469994E-3 -5.2238954E-4
-1.8389441E-2 -8.357839E-4
-1.2678143E-2 -5.4002195E-3
4.560741E-3 1.0653147E-3
5.4021426E-3 -8.6054084E-4
6.5281275E-3 1.1483827E-2
-1.0840414E-2 -3.5222012E-3
1.18633285E-2 3.5518612E-4
-1.2787347E-4 1.8102652E-3
1.998306E-2 4.0161473E-4
-5.387297E-3 -7.572744E-4
5.0171465E-3 6.1963736E-3
2.083979E-2 -2.1586035E-4
5.8151763E-3 2.1716447E-3
-9.498596E-3 -1.5616359E-2
1.1311938E-2 4.296437E-3
1.4071506E-2 1.3758736E-3
-1.2001626E-2 -4.130253E-3
4.4929953E-3 8.143774E-4
1.5519133E-2 0
6.0434444E-3 -3.4523113E-3
1.983271E-2 -1.4250515E-4
1.0739896E-2 -6.775878E-4
1.21893585E-2 8.72291E-3
-1.1219997E-2 -1.4297664E-3
-1.6281309E-2 1.2772715E-5
-1.7058028E-2 1.6278651E-3
3.7602247E-3 -4.6811856E-5
2.032378E-2 -7.471036E-4
1.8391744E-3 2.2445829E-3
5.254144E-4 -4.323884E-4
1.6396599E-2 5.985114E-4
-1.2118156E-2 -5.6978604E-3
-1.5574294E-2 1.7664004E-3
1.0124328E-2 -2.8933835E-4
2.0430824E-2 -1.0721438E-3
9.315169E-3 -3.6816119E-4
2.0191342E-2 -1.1254499E-3
1.4455276E-2 4.49647E-3
-5.1027616E-3 -6.586629E-4
-5.8088405E-3 1.5394839E-3
-8.408156E-3 -1.1827406E-2
1.2238514E-2 2.6476532E-3
-1.3005365E-2 9.2713966E-4
-6.0953116E-5 -1.9927009E-3
-2.1884944E-2 1.7766651E-3
5.9719896E-3 2.3034753E-4
-6.1704917E-3 -6.2160315E-3
-2.2752842E-2 2.5465228E-3
-6.5964554E-3 -1.7287375E-3
1.211291E-2 1.6014693E-2
-1.2839708E-2 -3.441572E-3
-1.5531952E-2 5.6412828E-5
1.3575073E-2 3.1834736E-3
-5.000897E-3 -3.9191276E-4
3.1214159E-3 0
7.754933E-3 4.356395E-3
4.3330514E-3 2.12528E-3
2.8063105E-3 6.1084526E-3
-4.0512206E-3 -3.0527248E-3
-6.343092E-3 -3.6168871E-3
-7.004846E-3 -3.160725E-3
1.4747162E-3 8.18252E-4
8.080662E-3 4.2301933E-3
2.1689026E-4 1.2832168E-3
3.0079333E-4 -5.1499075E-5
6.2520043E-3 3.88058E-3
-3.4515208E-3 -4.914601E-3
-6.457869E-3 -2.7767122E-3
4.0069693E-3 2.1395348E-3
8.194653E-3 4.1274293E-3
3.7094029E-3 1.9288384E-3
8.113252E-3 4.053396E-3
4.6288953E-3 4.9666613E-3
-1.8405892E-3 -1.3916316E-3
-2.6045388E-3 -6.927023E-4
-6.4322795E-4 -6.4762537E-3
4.176925E-3 3.7535669E-3
-5.270782E-3 -2.532065E-3
4.1955028E-4 -7.895548E-4
-8.91764E-3 -4.1765515E-3
2.2743638E-3 1.4182016E-3
-1.0201177E-3 -3.7932978E-3
-9.426874E-3 -4.0698233E-3
-2.1842183E-3 -2.1406189E-3
1.1544453E-3 8.9310035E-3
-4.23443E-3 -4.196473E-3
-6.0609854E-3 -3.4331945E-3
4.5782104E-3 4.25955E-3
-1.8602608E-3 -1.2650937E-3
2.5346566E-2 0
1.3731295E-2 -7.6730526E-4
1.54973185E-2 1.1259392E-2
-1.4325491E-2 -1.9302014E-3
-2.0806853E-2 -1.3318063E-4
-2.181429E-2 1.9236966E-3
4.8058173E-3 -2.5294954E-5
2.5979681E-2 -7.681386E-4
2.329766E-3 2.8853577E-3
6.7542493E-4 -5.4774707E-4
2.0948576E-2 9.15431E-4
-1.5434103E-2 -7.39287E-3
-1.9919422E-2 2.1143625E-3
1.2941062E-2 -2.7679375E-4
2.6119463E-2 -1.1825406E-3
1.1907722E-2 -3.849557E-4
2.5813906E-2 -1.2528632E-3
1.8431863E-2 5.8790105E-3
-6.5150373E-3 -8.8859576E-4
-7.4375574E-3 1.9140472E-3
-1.06366165E-2 -1.5192067E-2
1.5615923E-2 3.4959547E-3
-1.6628748E-2 1.0654181E-3
-5.9597107E-5 -2.547136E-3
-2.7984226E-2 2.069533E-3
7.629802E-3 3.4921136E-4
-7.828514E-3 -8.000452E-3
-2.9100427E-2 3.0454048E-3
-8.414081E-3 -2.269816E-3
1.5332664E-2 2.057724E-2
-1.6376931E-2 -4.5160656E-3
-1.984961E-2 -7.0529655E-5
1.7319063E-2 4.1929805E-3
-6.3873082E-3 -5.46767E-4
7.462047E-3 0
8.054697E-3 6.568828E-3
-7.7022878E-3 -1.47934E-3
-1.1267913E-2 -7.02026E-4
-1.1875952E-2 3.8177343E-4
2.6042783E-3 1.3178102E-4
1.4097535E-2 3.7033754E-4
1.1747847E-3 1.6336472E-3
3.824877E-4 -2.7629072E-4
1.1321008E-2 1.1300939E-3
-8.137499E-3 -4.4722566E-3
-1.0855193E-2 5.4242735E-4
7.0190956E-3 2.4180792E-4
1.4185805E-2 1.5007069E-4
6.462566E-3 1.5193065E-4
1.40224015E-2 1.0272373E-4
9.80734E-3 3.7428855E-3
-3.502569E-3 -6.7861634E-4
-4.0871794E-3 8.1176584E-4
-5.3023985E-3 -8.552177E-3
8.353969E-3 2.366639E-3
-9.040742E-3 7.3786774E-5
4.482207E-5 -1.3816945E-3
-1.5222878E-2 2.7399944E-4
4.1228123E-3 4.2015588E-4
-3.99884E-3 -4.571169E-3
-1.5857114E-2 7.688797E-4
-4.4895476E-3 -1.4843703E-3
7.683422E-3 1.1611712E-2
-8.735357E-3 -2.9423137E-3
-1.0751231E-2 -6.391073E-4
9.255529E-3 2.7958052E-3
-3.4437208E-3 -4.8956665E-4
1.4476943E-2 0
-9.616278E-3 5.183479E-3
-1.2780826E-2 9.161343E-3
-1.2483087E-2 1.0866475E-2
2.9271217E-3 -2.1502946E-3
1.5543196E-2 -1.2010287E-2
2.7061852E-3 7.2923343E-4
1.6964735E-4 -6.349375E-4
1.3214964E-2 -8.746018E-3
-1.2720716E-2 2.335976E-3
-1.1239835E-2 1.0141317E-2
7.7894283E-3 -5.9178853E-3
1.5444576E-2 -1.2325752E-2
7.109579E-3 -5.524989E-3
1.5226514E-2 -1.2233014E-2
1.3881114E-2 -4.593232E-3
-4.3781344E-3 2.350792E-3
-3.6971949E-3 4.474175E-3
-1.3251992E-2 -4.5637144E-3
1.1100806E-2 -4.7993837E-3
-9.693821E-3 8.038199E-3
-1.1679216E-3 -1.5308883E-3
-1.6190708E-2 1.3696437E-2
4.8201163E-3 -3.1757795E-3
-8.340429E-3 -1.4140479E-3
-1.6439673E-2 1.4788936E-2
-6.1528045E-3 2.3498791E-3
1.8515425E-2 5.7702325E-3
-1.2019249E-2 4.5137224E-3
-1.2167718E-2 8.774424E-3
1.2451763E-2 -5.129774E-3
-4.1481922E-3 2.5030526E-3
8.243538E-3 0
1.1769858E-2 -1.5092199E-3
1.218261E-2 -2.748455E-3
-2.7142484E-3 3.8027074E-4
-1.4624823E-2 2.4125548E-3
-1.5364753E-3 -1.4533431E-3
-3.4002765E-4 3.610135E-4
-1.1909528E-2 1.0778962E-3
9.286105E-3 3.0029928E-3
1.1097141E-2 -2.711917E-3
-7.293013E-3 1.1419326E-3
-1.4672268E-2 2.6574137E-3
-6.700748E-3 1.1243725E-3
-1.4494216E-2 2.67389E-3
-1.0865108E-2 -1.9190967E-3
3.7498688E-3 6.0852035E-6
4.057835E-3 -1.648178E-3
7.1685654E-3 7.7763214E-3
-9.092107E-3 -7.866705E-4
9.31718E-3 -1.8684765E-3
2.2765386E-4 1.435064E-3
1.5658658E-2 -3.3007348E-3
-4.338841E-3 3.836588E-4
5.03381E-3 3.9255735E-3
1.6215203E-2 -3.9372835E-3
4.928362E-3 6.4211315E-4
-1.0232793E-2 -1.0462323E-2
9.599901E-3 1.3052691E-3
1.1224068E-2 -1.4717329E-3
-1.0107775E-2 -1.0509206E-3
3.6516471E-3 -1.7738444E-4
1.7080931E-2 0
1.7897123E-2 -1.6937732E-3
-3.944936E-3 4.6016106E-5
-2.132254E-2 7.670684E-4
-1.9276527E-3 -2.3563327E-3
-5.5157446E-4 4.5319146E-4
-1.720138E-2 -6.4140104E-4
1.27086155E-2 5.987668E-3
1.6340634E-2 -1.8403332E-3
-1.0621793E-2 2.9521575E-4
-2.1435108E-2 1.107983E-3
-9.772961E-3 3.7857587E-4
-2.1183908E-2 1.1641051E-3
-1.5161506E-2 -4.7291988E-3
5.3528273E-3 6.952108E-4
6.095392E-3 -1.6103106E-3
8.811365E-3 1.2415194E-2
-1.2837394E-2 -2.787758E-3
1.3644849E-2 -9.619693E-4
6.230649E-5 2.0906166E-3
2.2961222E-2 -1.8459088E-3
-6.265097E-3 -2.4657554E-4
6.468421E-3 6.526393E-3
2.387238E-2 -2.6528602E-3
6.918999E-3 1.8190687E-3
-1.26946205E-2 -1.6811177E-2
1.346746E-2 3.6211621E-3
1.6294805E-2 -4.640027E-5
-1.4239153E-2 -3.3509934E-3
5.246179E-3 4.1527636E-4
1.8920274E-2 0
-4.138003E-3 -3.4297138E-4
-2.2417476E-2 -1.3106557E-3
-1.7861056E-3 -2.6600766E-3
-6.2287005E-4 4.2015163E-4
-1.7959725E-2 -2.377766E-3
1.2722135E-2 7.5339894E-3
1.7303944E-2 -3.0790744E-4
-1.1158616E-2 -7.439522E-4
-2.2569228E-2 -9.646139E-4
-1.0277491E-2 -5.724374E-4
-2.231159E-2 -8.8090036E-4
-1.5417025E-2 -6.458618E-3
5.539668E-3 1.2592258E-3
6.546335E-3 -1.0828283E-3
8.001294E-3 1.3882189E-2
-1.3174376E-2 -4.193945E-3
1.4392242E-2 3.4511034E-4
-1.4202516E-4 2.1966929E-3
2.4241442E-2 3.4275852E-4
-6.5400167E-3 -8.7961525E-4
6.1303396E-3 7.479667E-3
2.5276154E-2 -4.1240032E-4
7.069234E-3 2.5920898E-3
-1.1634194E-2 -1.8873302E-2
1.3751906E-2 5.129651E-3
1.7078036E-2 1.5672027E-3
-1.4587265E-2 -4.9230945E-3
5.455682E-3 9.5533975E-4
9.112288E-4 0
4.926625E-3 -1.1971569E-4
4.3885413E-4 5.494012E-4
1.2861009E-4 -1.0318113E-4
3.9710263E-3 1.9447549E-4
-2.9189945E-3 -1.4171223E-3
-3.778918E-3 3.8101344E-4
2.4539572E-3 -3.9566537E-5
4.9535423E-3 -1.9814874E-4
2.2581394E-3 -6.110587E-5
4.8956773E-3 -2.1178713E-4
3.4888932E-3 1.1330799E-3
-1.2343923E-3 -1.7498335E-4
-1.412103E-3 3.5548917E-4
-2.001587E-3 -2.891096E-3
2.9573573E-3 6.784322E-4
-3.1539453E-3 1.854129E-4
-8.757925E-6 -4.830074E-4
-5.307995E-3 3.644654E-4
1.4462947E-3 7.3826144E-5
-1.4763357E-3 -1.5247326E-3
-5.5206055E-3 5.483807E-4
-1.5930808E-3 -4.3876385E-4
2.8866036E-3 3.9168345E-3
-3.1006294E-3 -8.72609E-4
-3.763501E-3 -3.3181816E-5
3.279584E-3 8.122909E-4
-1.2105154E-3 -1.1004361E-4
2.665189E-2 0
2.3005176E-3 3.0280338E-3
7.088956E-4 -5.4095977E-4
2.1444093E-2 1.5731532E-3
-1.5595578E-2 -8.045267E-3
-2.0481052E-2 1.563509E-3
1.3272697E-2 1.0847727E-4
2.6807722E-2 -4.2051732E-4
1.2216825E-2 -3.370239E-5
2.649666E-2 -5.018573E-4
1.8714095E-2 6.584444E-3
-6.650843E-3 -1.1082327E-3
-7.681341E-3 1.7364583E-3
-1.0441898E-2 -1.5893888E-2
1.5900038E-2 4.0565263E-3
-1.7076394E-2 5.8808835E-4
1.610639E-5 -2.6125654E-3
-2.8745946E-2 1.2731521E-3
7.8097987E-3 5.891582E-4
-7.7815996E-3 -8.437537E-3
-2.9919602E-2 2.2395728E-3
-8.555463E-3 -2.5815049E-3
1.5092046E-2 2.155589E-2
-1.6649138E-2 -5.12518E-3
-2.0343283E-2 -6.7384285E-4
1.7624594E-2 4.8225764E-3
-6.5302826E-3 -7.5399457E-4
5.426021E-4 0
-2.7081228E-7 -1.272348E-4
2.0297277E-3 -2.300564E-3
-2.2602242E-3 1.0774343E-3
-1.5902312E-3 2.461897E-3
1.1579873E-3 -1.498604E-3
2.2661919E-3 -3.0820367E-3
1.0506936E-3 -1.3909142E-3
2.2301008E-3 -3.0537168E-3
2.3634355E-3 -1.5578364E-3
-6.9999346E-4 6.5997086E-4
-4.657458E-4 1.022596E-3
-2.7070877E-3 -1.8556823E-4
1.8333266E-3 -1.4563224E-3
-1.4071722E-3 1.9908836E-3
-2.9543438E-4 -2.2733938E-4
-2.3366222E-3 3.3758436E-3
7.410571E-4 -8.3644973E-4
-1.6303106E-3 1.5579557E-4
-2.3281304E-3 3.5926064E-3
-1.0317797E-3 7.4919395E-4
3.7517597E-3 1.459736E-4
-2.019401E-3 1.4491875E-3
-1.8325343E-3 2.2531224E-3
2.0692197E-3 -1.5861331E-3
-6.493405E-4 6.768504E-4
2.9835432E-5 0
5.3844636E-4 4.7709915E-4
-2.5151955E-4 -5.3053786E-4
-5.7649665E-4 -3.7412214E-4
3.5082977E-4 2.722845E-4
7.2157587E-4 5.329377E-4
3.2563115E-4 2.470714E-4
7.1495323E-4 5.2446057E-4
3.6411756E-4 5.549797E-4
-1.5440724E-4 -1.644709E-4
-2.3955615E-4 -1.09723136E-4
4.4865003E-5 -6.3469255E-4
3.4057815E-4 4.306237E-4
-4.661401E-4 -3.3096154E-4
5.3456275E-5 -6.9162954E-5
-7.904356E-4 -5.4959964E-4
1.9576929E-4 1.74188E-4
-3.571882E-5 -3.8236936E-4
-8.412685E-4 -5.4771645E-4
-1.7516357E-4 -2.42316E-4
-3.610188E-5 8.7967754E-4
-3.3881218E-4 -4.7425277E-4
-5.2742014E-4 -4.3083561E-4
3.708997E-4 4.860031E-4
-1.583906E-4 -1.5260171E-4
1.7346764E-2 0
-1.3023073E-2 -5.552674E-3
-1.6386757E-2 2.4669126E-3
1.0685608E-2 -6.96153E-4
2.1544656E-2 -1.9206989E-3
9.82766E-3 -7.482265E-4
2.1289578E-2 -1.9677843E-3
1.5446003E-2 4.193223E-3
-5.4166797E-3 -4.9911096E-4
-6.0779066E-3 1.8505519E-3
-9.339698E-3 -1.2171869E-2
1.3032602E-2 2.3253637E-3
-1.3704945E-2 1.4811257E-3
-1.4125003E-4 -2.1030195E-3
-2.3053821E-2 2.7211348E-3
6.318535E-3 1.30555245E-5
-6.759105E-3 -6.3295206E-3
-2.39411E-2 3.5679913E-3
-7.036097E-3 -1.5720828E-3
1.341541E-2 1.6453033E-2
-1.3698405E-2 -3.1409855E-3
-1.6407968E-2 6.5860857E-4
1.4465395E-2 2.8399338E-3
-5.2987672E-3 -2.2120737E-4
1.1554468E-2 0
1.1512693E-2 -7.097411E-3
-7.7993767E-3 3.9430847E-3
-1.5559825E-2 8.338378E-3
-7.1386048E-3 3.707551E-3
-1.5353251E-2 8.292076E-3
-1.29383225E-2 1.7961839E-3
4.226334E-3 -1.359164E-3
3.9706263E-3 -3.3348303E-3
1.0907972E-2 6.1484003E-3
-1.0528564E-2 2.425952E-3
9.814873E-3 -5.4988884E-3
7.7921693E-4 1.5336268E-3
1.6436612E-2 -9.422386E-3
-4.7478164E-3 2.012753E-3
7.1004643E-3 2.5883047E-3
1.6831659E-2 -1.0342181E-2
5.785567E-3 -1.0720042E-3
-1.5338205E-2 -8.057853E-3
1.1289495E-2 -2.026747E-3
1.2107454E-2 -5.7466174E-3
-1.17689455E-2 2.4982742E-3
4.0488546E-3 -1.5300566E-3
1.5830701E-2 0
-1.0193245E-2 -8.619919E-4
-2.0625474E-2 -1.2494986E-3
-9.390184E-3 -6.9078995E-4
-2.0391207E-2 -1.1687442E-3
-1.3994862E-2 -6.1577633E-3
5.0459295E-3 1.2418042E-3
6.004712E-3 -8.8378927E-4
7.0918375E-3 1.2826467E-2
-1.1980657E-2 -4.0500616E-3
1.3157118E-2 5.498458E-4
-1.6564097E-4 2.0067212E-3
2.2164952E-2 7.079819E-4
-5.9669977E-3 -9.109028E-4
5.4849093E-3 6.940455E-3
2.312356E-2 3.4172463E-5
6.423135E-3 2.4856958E-3
-1.0333158E-2 -1.7450316E-2
1.24936225E-2 4.91523E-3
1.5593578E-2 1.7112453E-3
-1.3260977E-2 -4.739914E-3
4.974064E-3 9.6251204E-4
6.6102743E-3 0
1.3348592E-2 -3.185303E-4
6.0838675E-3 -6.650803E-5
1.3193352E-2 -3.577708E-4
9.346459E-3 3.2028982E-3
-3.3166448E-3 -5.248323E-4
-3.818257E-3 8.9602434E-4
-5.264778E-3 -7.8726895E-3
7.934764E-3 1.9554433E-3
-8.501688E-3 3.623724E-4
-2.6125308E-6 -1.3011289E-3
-1.4310362E-2 7.510335E-4
3.891695E-3 2.616151E-4
-3.9095953E-3 -4.1702394E-3
-1.4890911E-2 1.237089E-3
-4.2711464E-3 -1.2507731E-3
7.6036076E-3 1.0673452E-2
-8.312167E-3 -2.484586E-3
-1.0133741E-2 -2.527748E-4
8.796714E-3 2.3299186E-3
-3.255164E-3 -3.4891165E-4
2.6971098E-2 0
1.22887865E-2 1.5885937E-4
2.6659502E-2 -8.672223E-5
1.8719625E-2 6.9182166E-3
-6.6722445E-3 -1.2196505E-3
-7.7536516E-3 1.6254141E-3
-1.0252177E-2 -1.6151572E-2
1.5929E-2 4.331117E-3
-1.7185519E-2 3.220933E-4
5.7422003E-5 -2.627587E-3
-2.893411E-2 8.270399E-4
7.846167E-3 7.1582716E-4
-7.69397E-3 -8.60965E-3
-3.0129874E-2 1.7805921E-3
-8.564755E-3 -2.731588E-3
1.4840178E-2 2.192005E-2
-1.6665619E-2 -5.417839E-3
-2.0451596E-2 -9.987617E-4
1.7651552E-2 5.1288567E-3
-6.556568E-3 -8.6143886E-4
5.600051E-3 0
1.2146304E-2 -1.9653708E-4
8.569933E-3 3.0418749E-3
-3.047245E-3 -5.164075E-4
-3.5232068E-3 7.86253E-4
-4.7663106E-3 -7.298723E-3
7.283208E-3 1.8795565E-3
-7.8283055E-3 2.4797703E-4
1.0686615E-5 -1.1975403E-3
-1.3178319E-2 5.4724404E-4
3.5791493E-3 2.7993708E-4
-3.5562986E-3 -3.8774796E-3
-1.37175275E-2 9.88752E-4
-3.9184312E-3 -1.1941417E-3
6.8907086E-3 9.899979E-3
-7.625233E-3 -2.370359E-3
-9.324202E-3 -3.346041E-4
8.07275E-3 2.2328831E-3
-2.99243E-3 -3.538776E-4
2.6351789E-2 0
1.8481113E-2 6.898483E-3
-6.5912395E-3 -1.2270139E-3
-7.669301E-3 1.5817051E-3
-1.00818E-2 -1.5997939E-2
1.5731048E-2 4.3322984E-3
-1.6988011E-2 2.631143E-4
6.520733E-5 -2.597046E-3
-2.8602496E-2 7.244498E-4
7.7532195E-3 7.327859E-4
-7.5773983E-3 -8.534922E-3
-2.9787512E-2 1.6631413E-3
-8.457025E-3 -2.7275693E-3
1.4598249E-2 2.1714525E-2
-1.645566E-2 -5.4088337E-3
-2.021211E-2 -1.0529825E-3
1.7431136E-2 5.126361E-3
-6.478051E-3 -8.7256846E-4
1.4767142E-2 0
-4.9437997E-3 8.649493E-4
-4.9645915E-3 3.1169876E-3
-1.1258606E-2 -8.580465E-3
1.2166671E-2 -1.0797997E-3
-1.1845203E-2 4.6317205E-3
-6.3413434E-4 -1.8384381E-3
-1.9869937E-2 7.995755E-3
5.629342E-3 -1.5157509E-3
-7.5485115E-3 -4.002094E-3
-2.0455284E-2 8.9643E-3
-6.64514E-3 3.0100835E-4
1.5922608E-2 1.14073055E-2
-1.2956681E-2 5.1449344E-4
-1.445087E-2 4.5527304E-3
1.3566854E-2 -9.6796185E-4
-4.7716303E-3 1.0838992E-3
1.7057664E-3 0
1.8446347E-3 -7.5272814E-4
3.2666188E-3 3.532046E-3
-4.136451E-3 -3.5113379E-4
4.2368737E-3 -8.568211E-4
1.0461582E-4 6.526222E-4
7.120465E-3 -1.5130161E-3
-1.973394E-3 1.7772379E-4
2.2927064E-3 1.7819718E-3
7.3731593E-3 -1.8029839E-3
2.2423158E-3 2.8845013E-4
-4.6624755E-3 -4.7516087E-3
4.367822E-3 5.866621E-4
5.1045823E-3 -6.7775586E-4
-4.598659E-3 -4.7058766E-4
1.6609514E-3 -8.3385195E-5
2.3269756E-3 0
1.9739205E-3 5.2611018E-3
-4.318254E-3 -2.2050713E-3
4.959904E-3 9.430905E-4
-1.7485929E-4 7.519182E-4
8.36782E-3 1.5059577E-3
-2.212477E-3 -6.786355E-4
1.6930016E-3 2.9387795E-3
8.769045E-3 1.3038937E-3
2.2975765E-3 1.3014321E-3
-2.945242E-3 -7.1959198E-3
4.4645257E-3 2.5618745E-3
5.8192355E-3 1.5196402E-3
-4.765378E-3 -2.5382151E-3
1.8329677E-3 6.4277824E-4
1.3569354E-2 0
-8.648564E-3 7.892708E-3
6.339625E-3 -1.0413935E-2
1.5516964E-3 1.0331777E-3
1.050308E-2 -1.7641487E-2
-3.4111335E-3 4.426558E-3
8.080475E-3 -1.3348383E-3
1.0386579E-2 -1.872003E-2
4.891414E-3 -4.0906575E-3
-1.876777E-2 5.548154E-4
9.579346E-3 -7.920749E-3
8.372108E-3 -1.1867739E-2
-9.781059E-3 8.621019E-3
3.0081342E-3 -3.5989364E-3
1.0103096E-2 0
-1.0097962E-2 2.9499396E-3
-3.880343E-4 -1.5610612E-3
-1.6955536E-2 5.1347897E-3
4.748858E-3 -8.37202E-4
-5.92659E-3 -3.8492917E-3
-1.7508626E-2 5.889974E-3
-5.496951E-3 -2.3790327E-4
1.228454E-2 1.0562786E-2
-1.0712651E-2 -5.2352407E-4
-1.2238999E-2 2.6943276E-3
1.1248533E-2 1.945278E-4
-4.0106107E-3 5.4411613E-4
1.0954163E-2 0
-6.79674E-5 1.6735672E-3
1.8446192E-2 -1.8144013E-4
-4.9908934E-3 -5.498129E-4
4.799647E-3 5.5778027E-3
1.9219501E-2 -7.747466E-4
5.4246928E-3 1.8428024E-3
-9.194134E-3 -1.4144301E-2
1.0554343E-2 3.651177E-3
1.3019477E-2 8.806297E-4
-1.1186015E-2 -3.4788162E-3
4.167445E-3 6.2719354E-4
2.5610783E-4 0
-1.4217339E-4 -2.817067E-3
-5.30329E-5 7.659157E-4
8.223914E-4 -7.678945E-4
-2.3761638E-4 -2.9315313E-3
2.4788314E-4 -8.4021385E-4
-2.103907E-3 1.4924328E-3
4.92337E-4 -1.6351377E-3
5.3759835E-5 -1.9945684E-3
-4.620846E-4 1.7305745E-3
6.996429E-5 -6.405901E-4
3.106535E-2 0
-8.395276E-3 -1.0085207E-3
7.989947E-3 9.472204E-3
3.237739E-2 -9.862876E-4
9.104353E-3 3.1930278E-3
-1.524812E-2 -2.3970492E-2
1.7712444E-2 6.323193E-3
2.1909479E-2 1.6985794E-3
-1.8778997E-2 -6.043411E-3
7.007354E-3 1.1251861E-3
2.3015281E-3 0
-2.4667585E-3 -2.3004327E-3
-8.717829E-3 1.317655E-3
-2.564072E-3 -5.6733366E-4
4.898928E-3 5.982899E-3
-4.9919905E-3 -1.13379E-3
-5.9760856E-3 2.5224625E-4
5.2711386E-3 1.0235549E-3
-1.9302354E-3 -7.658643E-5
4.943189E-3 0
8.026669E-3 -1.0125931E-2
3.3152145E-3 -1.954788E-3
-1.1230682E-2 -1.515825E-3
6.4836238E-3 -3.774427E-3
6.1529926E-3 -6.2435963E-3
-6.67263E-3 4.1715917E-3
2.1453605E-3 -1.847232E-3
3.3776153E-2 0
9.387499E-3 3.6169358E-3
-1.5131088E-2 -2.546699E-2
1.825977E-2 7.1526E-3
2.2780892E-2 2.4659173E-3
-1.9380253E-2 -6.894863E-3
7.2675846E-3 1.3951829E-3
2.996415E-3 0
-6.932571E-3 -5.4577906E-3
5.840928E-3 3.2585136E-5
6.5956204E-3 -1.754144E-3
-6.1247465E-3 1.5903574E-4
2.1693036E-3 -3.9048586E-4
2.5980383E-2 0
-1.3573049E-2 1.0563511E-2
-1.2064702E-2 1.6071953E-2
1.3880672E-2 -1.1523808E-2
-4.307701E-3 4.8546935E-3
1.1386108E-2 0
1.2837803E-2 -3.491088E-3
-1.1937273E-2 3.766142E-4
4.224389E-3 -7.847667E-4
1.5544986E-2 0
-1.3574714E-2 -3.2354495E-3
5.003603E-3 4.104152E-4
1.2527576E-2 0
-4.4548353E-3 6.830262E-4
1.62139E-3 0
