%%MatrixMarket matrix array complex hermitian
%
8 8
1.2424171E-1 0
1.2492739E-1 3.9449595E-3
-1.2494474E-1 4.517203E-3
1.2415601E-1 4.253107E-3
1.24959975E-1 -4.763419E-4
-1.2431565E-1 1.6836139E-3
1.2425437E-1 2.5535396E-3
1.2475609E-1 6.058295E-3
1.2574212E-1 0
-1.2549087E-1 8.509416E-3
1.2497627E-1 3.3434076E-4
1.2563449E-1 -4.446737E-3
-1.2494828E-1 5.6402124E-3
1.250212E-1 -1.3777296E-3
1.2563697E-1 2.1304376E-3
1.2581597E-1 0
-1.2470392E-1 -8.791261E-3
-1.2568438E-1 -4.064281E-3
1.250803E-1 2.82675E-3
-1.2486462E-1 -7.085652E-3
-1.2524176E-1 -1.0628481E-2
1.24215975E-1 0
1.2485748E-1 -4.753708E-3
-1.2417227E-1 5.9380904E-3
1.24256074E-1 -1.7017621E-3
1.2487743E-1 1.7834004E-3
1.2568422E-1 0
-1.250408E-1 1.2167218E-3
1.2496292E-1 3.0446923E-3
1.2545411E-1 6.571633E-3
1.2441244E-1 0
-1.24293715E-1 -4.2388444E-3
-1.2474823E-1 -7.752484E-3
1.24319516E-1 0
1.2489332E-1 3.4948005E-3
1.2556802E-1 0
