%%MatrixMarket matrix array complex hermitian
%
9 9
1.2984385E-1 0
-6.4918116E-2 -7.3266305E-2
-1.2976116E-1 -9.345077E-5
-6.476739E-2 -7.334112E-2
1.2983361E-1 1.15608755E-5
-1.298191E-1 -2.797098E-5
-1.2981474E-1 -3.2880987E-5
-1.2976456E-1 -8.9621746E-5
-6.4891696E-2 -7.3341526E-2
7.379875E-2 0
6.492951E-2 -7.3172934E-2
7.37656E-2 1.2244901E-4
-6.4919524E-2 7.325476E-2
6.492153E-2 -7.323836E-2
6.4922124E-2 -7.3233455E-2
6.4929046E-2 -7.317676E-2
7.382798E-2 5.2515592E-5
1.296786E-1 0
6.477894E-2 7.32478E-2
-1.2975095E-1 8.18899E-5
1.2973645E-1 -6.547979E-5
1.2973212E-1 -6.0569782E-5
1.2968199E-1 -3.8290245E-6
6.4903155E-2 7.3248126E-2
7.3732674E-2 0
-6.476881E-2 7.332957E-2
6.477085E-2 -7.3313184E-2
6.477145E-2 -7.330828E-2
6.477846E-2 -7.325163E-2
7.379491E-2 -7.00056E-5
1.298234E-1 0
-1.2980887E-1 -1.6410104E-5
-1.2980454E-1 -2.1320113E-5
-1.2975433E-1 -7.806087E-5
-6.489311E-2 -7.332997E-2
1.2979436E-1 0
1.2979002E-1 4.9100076E-6
1.2973984E-1 6.165077E-5
6.489512E-2 7.3313564E-2
1.2978567E-1 0
1.2973551E-1 5.674076E-5
6.489573E-2 7.330866E-2
1.2968537E-1 0
6.4902686E-2 7.325195E-2
7.385726E-2 0
