%%MatrixMarket matrix array real symmetric
%
8 8
2.1235438721095323E-1
1.2714171524645444E-16
9.793077832644112E-18
-3.097248829576968E-18
-1.1108138887093249E-17
-2.1107937436452106E-17
-1.3432616549869697E-17
-3.0134775559617346E-17
1.884389798455408E-1
1.1741707102567098E-1
7.106858534473815E-17
1.1741707102567095E-1
6.400568177935247E-17
8.673334854244269E-17
-9.846319518058656E-19
1.884389798455406E-1
1.8386187779673067E-17
1.1741707102567066E-1
6.404336489829956E-17
-1.4865529480479888E-17
1.6986834393853122E-17
6.492366448515967E-2
-1.1854558071884271E-17
6.492290333891283E-2
6.492290333891275E-2
-1.0448627177577607E-17
1.8843897984554037E-1
5.449773310124386E-19
-2.2776111448972677E-17
1.0196955820864572E-17
6.492366448515961E-2
6.492290333891255E-2
-3.324719787598145E-17
6.492366448515914E-2
1.4287306327585886E-17
2.755768155425204E-2
