%%MatrixMarket matrix array complex hermitian
%
8 8
1.247886E-1 0
1.250296E-1 -5.0536117E-5
-1.2503639E-1 -8.307923E-4
1.2474984E-1 7.646673E-4
1.2513568E-1 1.3092214E-3
-1.24626085E-1 -1.0191789E-3
3.6415947E-4 -1.2463144E-1
6.369892E-5 -1.2513842E-1
1.2527107E-1 0
-1.2527752E-1 -8.830289E-4
1.2499045E-1 8.1665826E-4
1.253768E-1 1.3624253E-3
-1.2486635E-1 -1.0716153E-3
4.153328E-4 -1.24871984E-1
1.1449991E-4 -1.2538007E-1
1.252902E-1 0
-1.2500264E-1 6.43515E-5
-1.2539287E-1 -4.787208E-4
1.24880336E-1 1.9149216E-4
4.6486317E-4 1.2488134E-1
7.6929294E-4 1.2538734E-1
1.2471578E-1 0
1.2510483E-1 5.420205E-4
-1.2459363E-1 -2.5519493E-4
-3.9965566E-4 -1.2459497E-1
-7.0312957E-4 -1.2509996E-1
1.2549746E-1 0
-1.24983415E-1 2.8550124E-4
-9.4240165E-4 -1.2498191E-1
-1.2490156E-3 -1.2548715E-1
1.2447212E-1 0
6.5421336E-4 1.2447212E-1
9.5842045E-4 1.2497599E-1
1.2447555E-1 0
1.2498102E-1 -3.015584E-4
1.2548928E-1 0
