%%MatrixMarket matrix array complex hermitian
%
16 16
6.260331E-2 0
6.250737E-2 1.0041576E-5
6.272703E-2 5.153733E-6
-6.2363945E-2 -1.4331639E-5
-6.269048E-2 -8.891274E-6
-6.2407907E-2 -1.102782E-5
6.26415E-2 1.3969577E-5
-6.2474694E-2 -1.5312226E-5
6.24125E-2 6.015517E-7
-6.269758E-2 -1.0701586E-5
6.246288E-2 -4.6370396E-6
6.262798E-2 4.5370953E-6
-6.250155E-2 -9.387224E-6
6.259412E-2 1.1653886E-5
6.237281E-2 4.197662E-6
6.2738486E-2 5.591225E-6
6.241158E-2 0
6.26309E-2 -4.9161295E-6
-6.2268373E-2 -4.307035E-6
-6.2594414E-2 1.176703E-6
-6.231227E-2 -1.0032147E-6
6.25455E-2 3.903486E-6
-6.2378954E-2 -5.2687633E-6
6.2316857E-2 -9.411739E-6
-6.26015E-2 -6.279521E-7
6.2367152E-2 -1.46484435E-5
6.253201E-2 -5.51391E-6
-6.240577E-2 6.524667E-7
6.24982E-2 1.5953377E-6
6.227722E-2 -5.8118567E-6
6.2642336E-2 -4.4786375E-6
6.285099E-2 0
-6.2487192E-2 -9.228821E-6
-6.281438E-2 -3.750741E-6
-6.253124E-2 -5.913687E-6
6.276529E-2 8.842244E-6
-6.2598154E-2 -1.0201864E-5
6.2535845E-2 -4.5352094E-6
-6.2821485E-2 -5.561053E-6
6.258632E-2 -9.787001E-6
6.275175E-2 -6.072089E-7
-6.262507E-2 -4.261777E-6
6.2717825E-2 6.5246672E-6
6.249607E-2 -9.277851E-7
6.286247E-2 4.3937789E-7
6.21255E-2 0
6.245079E-2 -5.4950524E-6
6.2169295E-2 -3.3019342E-6
-6.240199E-2 4.2429195E-7
6.223582E-2 9.5229973E-7
-6.2173873E-2 1.3688601E-5
6.2457856E-2 -3.6941685E-6
-6.2224053E-2 1.8919649E-5
-6.238852E-2 9.8190585E-6
6.2262576E-2 -4.9595014E-6
-6.23548E-2 2.7211256E-6
-6.2134326E-2 1.0098149E-5
-6.2498603E-2 8.793215E-6
6.277779E-2 0
6.249481E-2 2.178032E-6
-6.2728725E-2 -5.091503E-6
6.256169E-2 6.462438E-6
-6.249941E-2 8.263321E-6
6.278489E-2 1.8103124E-6
-6.254986E-2 1.3515113E-5
-6.2715195E-2 4.3522928E-6
6.258859E-2 5.2235055E-7
-6.268129E-2 -2.7795836E-6
-6.245966E-2 4.655897E-6
-6.282585E-2 3.3132487E-6
6.221312E-2 0
-6.2445976E-2 -2.8908426E-6
6.2279698E-2 4.2598913E-6
-6.2217698E-2 1.0396096E-5
6.2501885E-2 -3.771484E-7
-6.226792E-2 1.5625259E-5
-6.24325E-2 6.5095815E-6
6.230647E-2 -1.6537957E-6
-6.239875E-2 -5.902372E-7
-6.2178127E-2 6.801871E-6
-6.254266E-2 5.476195E-6
6.267971E-2 0
-6.251281E-2 -1.3803632E-6
6.2450577E-2 -1.33265385E-5
-6.273583E-2 3.2849625E-6
6.250098E-2 -1.8580216E-5
6.2666185E-2 -9.436253E-6
-6.253968E-2 4.5559527E-6
6.263231E-2 -2.3081482E-6
6.2410858E-2 -9.717229E-6
6.277675E-2 -8.406638E-6
6.2346347E-2 0
-6.2284283E-2 1.4667301E-5
6.256878E-2 -4.657783E-6
-6.2334552E-2 1.9905892E-5
-6.2499315E-2 1.0790216E-5
6.2373146E-2 -5.92123E-6
-6.246553E-2 3.6809683E-6
-6.2244665E-2 1.106742E-5
-6.260959E-2 9.766258E-6
6.2222283E-2 0
-6.250649E-2 -1.0066091E-5
6.2272504E-2 -5.2235055E-6
6.24371E-2 3.9223432E-6
-6.2311057E-2 -8.757386E-6
6.2403347E-2 1.1016505E-5
6.2182706E-2 3.5866813E-6
6.254727E-2 4.972702E-6
6.2791996E-2 0
-6.2556945E-2 1.5319769E-5
-6.272229E-2 6.1607193E-6
6.259567E-2 -1.2823045E-6
-6.268839E-2 -9.730429E-7
-6.2466737E-2 6.4567807E-6
-6.283296E-2 5.123561E-6
6.232277E-2 0
6.2487498E-2 9.166592E-6
-6.236135E-2 -1.3994091E-5
6.2453717E-2 1.6262638E-5
6.2232897E-2 8.810187E-6
6.259775E-2 1.0226379E-5
6.265266E-2 0
-6.252618E-2 -4.859557E-6
6.261879E-2 7.120562E-6
6.2397387E-2 -3.224619E-7
6.276321E-2 1.0447011E-6
6.2399957E-2 0
-6.249238E-2 -2.2496902E-6
-6.2271424E-2 5.161276E-6
-6.26365E-2 3.8242847E-6
6.2584944E-2 0
6.2363658E-2 -7.412852E-6
6.272928E-2 -6.089061E-6
6.214316E-2 0
6.250748E-2 1.3633914E-6
6.287395E-2 0
