%%MatrixMarket matrix array complex general
%
121 121
9.080571E-3 0
-3.9327457E-3 -9.2104805E-4
1.3276838E-3 -1.00738425E-2
6.1594774E-3 1.0659569E-3
1.7607168E-3 -1.0890277E-2
1.4628907E-3 -5.387387E-3
6.178122E-3 3.1499467E-3
9.339207E-3 1.8288796E-3
-1.0975253E-2 -1.726479E-3
9.404161E-3 2.1842103E-3
-8.176464E-3 -3.0652157E-3
-6.8434267E-3 -2.2953318E-3
-8.333484E-3 -2.17233E-3
-1.0432242E-2 -1.6632474E-3
-9.496521E-3 -1.6752761E-3
7.3352098E-3 -8.7449465E-5
-5.6688594E-5 -5.187935E-3
-1.0524603E-2 -1.3879709E-3
3.914299E-3 4.465997E-3
-5.1697604E-3 7.73864E-4
1.0774924E-2 1.8739228E-3
1.077981E-2 1.6525635E-3
1.0413455E-2 1.9742968E-3
-1.0498092E-2 -2.0057117E-3
-3.1280708E-3 5.160064E-3
-1.8457958E-3 3.4109782E-3
6.59662E-3 3.2082887E-3
1.0855938E-2 1.6055168E-3
2.4343133E-3 -8.978825E-3
1.029999E-2 9.0239174E-4
1.0973859E-2 1.7138636E-3
-2.5093437E-3 -5.943771E-3
-3.0367216E-3 2.4197833E-3
6.993098E-3 2.786274E-3
8.795341E-3 1.3797068E-3
-1.0932833E-2 -1.7429901E-3
8.733647E-3 2.630404E-3
7.6832464E-3 -3.7946345E-4
-5.489465E-3 -2.1285932E-3
-8.686822E-3 -2.4475234E-3
-8.239611E-3 2.9431022E-4
1.0391481E-2 1.8955817E-3
8.575038E-3 2.5624742E-3
-6.7006364E-3 -1.8746483E-3
1.0950182E-2 1.6990141E-3
-7.928642E-3 1.3456831E-3
-7.5539914E-3 1.2299024E-3
-5.957205E-3 -2.0408072E-3
8.178898E-3 1.2994838E-3
-1.0851558E-2 -1.7444988E-3
9.947748E-3 2.2163526E-3
-1.067363E-2 -1.8863862E-3
-5.9704618E-3 -3.91548E-3
-8.420756E-3 6.6472415E-4
2.5993856E-3 2.1363205E-4
8.924037E-3 5.1381E-5
7.1115745E-3 2.4806375E-3
5.285985E-3 2.389204E-3
-8.507207E-3 -1.323983E-3
-6.652869E-3 -1.931937E-3
1.8440523E-3 -1.0525021E-2
9.244484E-3 1.1907528E-3
-2.3265725E-3 3.0405526E-3
9.00686E-3 8.750077E-4
1.0528114E-2 1.4283309E-3
1.0944148E-2 1.7364884E-3
6.106501E-3 2.6584244E-3
-1.07638305E-2 -1.6799219E-3
9.887633E-3 5.98836E-4
-1.0706156E-2 -1.8530998E-3
-8.143742E-3 1.9753151E-4
-4.8745535E-3 4.142851E-3
-1.0779323E-2 -1.5969672E-3
-6.3094175E-3 -4.243543E-3
1.2881184E-3 -2.7742222E-4
7.1281954E-3 2.3513776E-3
-1.0132835E-2 -1.3013366E-3
-4.5649703E-3 -3.2457763E-3
-1.0730196E-2 -1.4882955E-3
-9.217964E-3 3.9768856E-4
6.5670507E-3 3.49628E-3
-1.0265379E-2 -2.1479947E-3
1.0600062E-2 1.2227804E-3
5.3447E-3 8.237812E-4
-1.0967111E-2 -1.6989642E-3
3.6241696E-3 -6.8629715E-3
3.9509526E-3 2.8442268E-3
1.9984054E-3 -8.501951E-3
9.707221E-3 1.6803744E-3
1.0916631E-2 1.7299908E-3
-9.527721E-3 -2.2149074E-3
-9.569737E-3 -2.2674536E-3
-7.2597293E-3 -1.2751608E-3
1.00858705E-2 1.9384079E-3
-8.234006E-3 -4.936603E-4
1.3546866E-3 4.3272934E-4
-7.4810367E-3 -3.8120174E-3
-7.2433744E-3 -2.1904407E-3
-4.3295062E-4 -7.469149E-3
7.4842507E-3 2.8954148E-3
-6.922547E-3 -3.4669696E-3
2.5012123E-3 -2.7783667E-3
1.06613E-2 1.4250805E-3
-8.514478E-3 -2.270263E-3
-3.6651313E-3 -5.54255E-3
-9.216977E-3 -1.3411156E-4
-1.6691675E-3 1.0904385E-2
-3.286618E-4 8.272243E-3
-9.017312E-3 -1.4838307E-3
9.529608E-3 5.594557E-4
-2.1543065E-3 8.806826E-3
2.1465903E-4 1.4112168E-3
-7.979546E-3 1.7215172E-3
-1.7268686E-3 9.611858E-3
-1.0504885E-2 -1.1277455E-3
-8.541521E-3 4.354678E-4
1.2843553E-3 -1.8562241E-3
9.060713E-3 2.452844E-3
2.328732E-3 -1.0041939E-2
-1.7976805E-3 9.074234E-3
-2.0138815E-3 1.0279156E-2
-3.9327457E-3 9.2104805E-4
1.7966734E-3 0
4.467835E-4 4.497594E-3
-2.7757566E-3 1.6309954E-4
3.4205092E-4 4.89511E-3
-8.712401E-5 2.4816296E-3
-2.995212E-3 -7.3757407E-4
-4.2302636E-3 1.5520392E-4
4.9284403E-3 -3.6549804E-4
-4.294437E-3 7.900407E-6
3.8520882E-3 4.981844E-4
3.1966679E-3 2.999626E-4
3.829527E-3 9.5553754E-5
4.6868515E-3 -3.3780545E-4
4.282816E-3 -2.3768505E-4
-3.1679694E-3 7.818887E-4
5.507671E-4 2.2411167E-3
4.698931E-3 -4.6639456E-4
-2.1482506E-3 -1.5371691E-3
2.1605017E-3 -8.5952826E-4
-4.856634E-3 2.8132155E-4
-4.8362976E-3 3.776866E-4
-4.7102645E-3 2.0118605E-4
4.7501065E-3 -1.9616507E-4
8.3136203E-4 -2.5520776E-3
4.5342653E-4 -1.6644964E-3
-3.182379E-3 -7.203931E-4
-4.864496E-3 4.057839E-4
-1.4356013E-4 4.1355942E-3
-4.5523997E-3 6.539136E-4
-4.9265567E-3 3.7082046E-4
1.6896633E-3 2.3196905E-3
1.0697474E-3 -1.3560116E-3
-3.3112862E-3 -4.9740565E-4
-3.9491584E-3 2.9457346E-4
4.9117426E-3 -3.5404455E-4
-4.0492984E-3 -2.5335434E-4
-3.2890828E-3 9.4366004E-4
2.5933618E-3 3.6508223E-4
4.010469E-3 1.7889924E-4
3.5386784E-3 -9.632129E-4
-4.692764E-3 2.3304828E-4
-3.9737155E-3 -2.4002214E-4
3.0921556E-3 1.3225015E-4
-4.9147955E-3 3.7485006E-4
3.297358E-3 -1.3870152E-3
3.1468426E-3 -1.2988702E-3
2.787033E-3 2.796195E-4
-3.6740433E-3 2.6679135E-4
4.8766965E-3 -3.4514745E-4
-4.5331214E-3 4.911587E-5
4.8140283E-3 -2.6564923E-4
2.9829238E-3 1.0901853E-3
3.5795602E-3 -1.1420109E-3
-1.1474487E-3 1.7113442E-4
-3.8701629E-3 8.8291784E-4
-3.331597E-3 -3.530192E-4
-2.5316696E-3 -4.985903E-4
3.8187173E-3 -2.8948134E-4
3.0772788E-3 1.619066E-4
2.689106E-4 4.745372E-3
-4.124514E-3 4.2196526E-4
6.992207E-4 -1.5528324E-3
-3.9895745E-3 5.346105E-4
-4.7045453E-3 4.4927082E-4
-4.915984E-3 3.5800805E-4
-2.914338E-3 -5.319631E-4
4.832152E-3 -3.6421698E-4
-4.34302E-3 7.4355624E-4
4.8247385E-3 -2.833645E-4
3.5069748E-3 -9.115746E-4
1.6909308E-3 -2.2886752E-3
4.8304475E-3 -4.0171572E-4
3.1629994E-3 1.1978869E-3
-5.2973797E-4 2.5080473E-4
-3.325684E-3 -2.953516E-4
4.5204707E-3 -4.64178E-4
2.3062846E-3 9.4270014E-4
4.7981483E-3 -4.4379776E-4
3.951912E-3 -1.1072205E-3
-3.1987836E-3 -8.481198E-4
4.663752E-3 -1.1093907E-4
-4.7148564E-3 5.455915E-4
-2.3983172E-3 1.8534112E-4
4.9221227E-3 -3.765889E-4
-8.7349245E-4 3.3399174E-3
-1.9996278E-3 -8.310715E-4
-3.1404447E-6 3.8848477E-3
-4.374586E-3 2.568485E-4
-4.9034073E-3 3.5803101E-4
4.351064E-3 -7.138317E-6
4.3745907E-3 1.1357152E-5
3.2734894E-3 -1.840938E-4
-4.5647495E-3 1.8350207E-4
3.6161758E-3 -6.2137883E-4
-6.3059945E-4 -5.0006E-5
3.6266516E-3 8.9215767E-4
3.3592435E-3 2.1396787E-4
9.451089E-4 3.1909333E-3
-3.5350719E-3 -4.9485604E-4
3.349774E-3 7.9936726E-4
-8.0145E-4 1.4569949E-3
-4.761898E-3 4.6418796E-4
3.9178478E-3 1.196097E-4
2.1495325E-3 2.0286916E-3
4.005426E-3 -8.7680074E-4
-3.831312E-4 -4.8919343E-3
-6.9671706E-4 -3.6159994E-3
4.0558544E-3 -2.7199253E-4
-4.1839667E-3 7.2429684E-4
3.9736413E-5 -4.032701E-3
-2.3610823E-4 -5.894173E-4
3.281283E-3 -1.55495E-3
-2.2703937E-4 -4.3380004E-3
4.6639964E-3 -5.770966E-4
3.6551165E-3 -1.0549704E-3
-3.6796925E-4 9.341935E-4
-4.1729393E-3 -1.4327941E-4
9.998847E-6 4.5853136E-3
-1.4183979E-4 -4.1123414E-3
-1.704203E-4 -4.656116E-3
1.3276838E-3 1.00738425E-2
4.467835E-4 -4.497594E-3
1.1369884E-2 0
-2.819692E-4 6.9890814E-3
1.2338939E-2 3.6102693E-4
6.190573E-3 8.352101E-4
-2.5911888E-3 7.3144697E-3
-6.634309E-4 1.062817E-2
3.1062044E-4 -1.2428203E-2
-1.0481316E-3 1.0752185E-2
2.2050084E-3 -9.519008E-3
1.5458165E-3 -7.927594E-3
1.1914972E-3 -9.5626535E-3
3.1986635E-4 -1.1816549E-2
4.700243E-4 -1.0780234E-2
1.1695069E-3 8.124779E-3
5.7471246E-3 -8.214252E-4
9.745156E-7 -1.1878764E-2
-4.382191E-3 4.9954415E-3
-1.6143906E-3 -5.622103E-3
-5.0348224E-4 1.2227519E-2
-2.571953E-4 1.2200574E-2
-6.676867E-4 1.1841187E-2
6.901632E-4 -1.1939675E-2
-6.181853E-3 -2.7157718E-3
-4.053962E-3 -1.5489723E-3
-2.594723E-3 7.787274E-3
-1.9387169E-4 1.2278151E-2
1.0316892E-2 1.387781E-3
5.0487794E-4 1.1558587E-2
-2.9682842E-4 1.2424812E-2
6.2270304E-3 -3.6528732E-3
-3.1284727E-3 -3.0150905E-3
-2.0685766E-3 8.165417E-3
-2.4464488E-4 9.95914E-3
3.3513986E-4 -1.2383557E-2
-1.6411688E-3 1.0073564E-2
1.5443495E-3 8.468189E-3
1.5588047E-3 -6.4011505E-3
1.4451307E-3 -9.994879E-3
-1.5312291E-3 -9.097862E-3
-5.835747E-4 1.1805301E-2
-1.5889992E-3 9.887674E-3
1.0999945E-3 -7.7076745E-3
-2.838166E-4 1.2396374E-2
-2.6521385E-3 -8.599156E-3
-2.4689145E-3 -8.200452E-3
1.3930271E-3 -6.907218E-3
-2.4577836E-4 9.26354E-3
3.4869649E-4 -1.22936135E-2
-1.0043117E-3 1.135993E-2
5.3212006E-4 -1.2116967E-2
3.4708213E-3 -7.1960236E-3
-1.968646E-3 -9.244663E-3
1.4306007E-4 2.9149528E-3
1.2477955E-3 9.907697E-3
-1.7121861E-3 8.252166E-3
-1.8776731E-3 6.2135165E-3
2.2495414E-4 -9.631341E-3
1.1705343E-3 -7.663059E-3
1.1945913E-2 5.068835E-4
3.064744E-5 1.0429785E-2
-3.7133128E-3 -2.136499E-3
3.461864E-4 1.0120004E-2
-4.5236713E-5 1.1888561E-2
-3.262729E-4 1.2395159E-2
-2.0563735E-3 7.1631474E-3
2.8988282E-4 -1.2186847E-2
7.8134646E-4 1.105674E-2
4.904367E-4 -1.2148183E-2
-1.4098468E-3 -9.005657E-3
-5.308729E-3 -4.8020203E-3
1.9558899E-4 -1.2191906E-2
3.7852097E-3 -7.6200217E-3
4.9610564E-4 1.3884559E-3
-1.5663572E-3 8.251705E-3
-3.7854872E-5 -1.1431476E-2
2.9333616E-3 -5.538875E-3
8.221383E-5 -1.2121515E-2
-1.7889618E-3 -1.0168117E-2
-2.9185393E-3 7.796578E-3
8.820346E-4 -1.170231E-2
1.9331796E-4 1.1938324E-2
-1.324331E-4 6.049772E-3
2.812862E-4 -1.2415146E-2
8.1435675E-3 3.0171513E-3
-2.5776653E-3 4.7989828E-3
9.724119E-3 9.739164E-4
-4.448731E-4 1.1014728E-2
-3.230875E-4 1.2363682E-2
1.064121E-3 -1.0893748E-2
1.1162709E-3 -1.0948042E-2
3.5318692E-4 -8.240271E-3
-6.7576906E-4 1.1472522E-2
-6.56247E-4 -9.206855E-3
-2.8199234E-4 1.5661379E-3
3.1351782E-3 -8.8567035E-3
1.3709752E-3 -8.355952E-3
8.222853E-3 -1.5723838E-3
-2.1178436E-3 8.726253E-3
2.8340446E-3 -8.186675E-3
3.4479818E-3 2.3685761E-3
-2.2156915E-5 1.203584E-2
1.2736793E-3 -9.777766E-3
5.6129326E-3 -4.8764227E-3
-1.198847E-3 -1.0244778E-2
-1.2341203E-2 -2.574014E-4
-9.225148E-3 8.448847E-4
3.2770395E-4 -1.0220616E-2
7.726868E-4 1.0653795E-2
-1.0085138E-2 -1.1022938E-3
-1.5341957E-3 4.4447533E-4
-3.0765252E-3 -8.6006755E-3
-1.0915731E-2 -5.1039614E-4
-2.8483177E-4 -1.1818843E-2
-1.73197E-3 -9.412157E-3
2.2470532E-3 1.1534421E-3
-1.3963655E-3 1.0410447E-2
1.1480855E-2 1.1152118E-3
-1.03296535E-2 -6.675607E-4
-1.1697986E-2 -7.312372E-4
6.1594774E-3 -1.0659569E-3
-2.7757566E-3 -1.6309954E-4
-2.819692E-4 -6.9890814E-3
4.3031904E-3 0
-8.407748E-5 -7.593714E-3
3.5988045E-4 -3.826066E-3
4.5604743E-3 1.4114104E-3
6.549603E-3 1.4423644E-4
-7.647335E-3 1.1727647E-4
6.6353744E-3 3.7763742E-4
-5.9060296E-3 -1.1193536E-3
-4.9114376E-3 -7.5361383E-4
-5.9077237E-3 -4.9526413E-4
-7.271581E-3 9.642419E-5
-6.63828E-3 -2.1578182E-5
4.9653086E-3 -9.2038914E-4
-6.474579E-4 -3.5123937E-3
-7.301915E-3 2.9399028E-4
3.179381E-3 2.569853E-3
-3.4158772E-3 1.1317943E-3
7.528757E-3 6.2532436E-6
7.506086E-3 -1.4447184E-4
7.295351E-3 1.16770716E-4
-7.356449E-3 -1.2814412E-4
-1.5160806E-3 3.867343E-3
-8.5161836E-4 2.5303895E-3
4.8511955E-3 1.4018578E-3
7.5522023E-3 -1.85321E-4
5.9721567E-4 -6.3762227E-3
7.0925574E-3 -5.9699814E-4
7.644909E-3 -1.2567024E-4
-2.3998541E-3 -3.7371735E-3
-1.7757949E-3 1.9978494E-3
5.0705923E-3 1.069057E-3
6.1279633E-3 -9.660003E-5
-7.620499E-3 1.01097154E-4
6.2329327E-3 7.590076E-4
5.167107E-3 -1.1593219E-3
-3.973453E-3 -7.9945265E-4
-6.1797034E-3 -6.404537E-4
-5.5544935E-3 1.1668721E-3
7.2712055E-3 6.5956454E-5
6.1173723E-3 7.315488E-4
-4.7651967E-3 -4.8502054E-4
7.627105E-3 -1.3296305E-4
-5.2201394E-3 1.843529E-3
-4.9796E-3 1.7210135E-3
-4.280422E-3 -6.8499893E-4
5.7004048E-3 -7.86526E-5
-7.5655472E-3 9.053319E-5
7.00787E-3 3.3562895E-4
-7.461511E-3 -2.6598138E-5
-4.5094797E-3 -1.9550594E-3
-5.633884E-3 1.4393937E-3
1.7882772E-3 -1.60229E-4
6.059329E-3 -1.0127295E-3
5.1150783E-3 8.4783183E-4
3.8660222E-3 1.0001148E-3
-5.925976E-3 1.00574325E-4
-4.7395206E-3 -5.294876E-4
1.5327176E-5 -7.3557384E-3
6.410442E-3 -2.7749423E-4
-1.2212197E-3 2.3355621E-3
6.2121935E-3 -4.637741E-4
7.3090345E-3 -2.670254E-4
7.627411E-3 -1.0683529E-4
4.454193E-3 1.0864116E-3
-7.498459E-3 1.2403831E-4
6.7772144E-3 -7.544979E-4
-7.4796663E-3 -2.012454E-7
-5.5008247E-3 1.089972E-3
-2.820153E-3 3.382371E-3
-7.4992306E-3 1.8212627E-4
-4.7779093E-3 -2.137799E-3
8.411823E-4 -3.3938995E-4
5.1111784E-3 7.582022E-4
-7.0260046E-3 3.067663E-4
-3.4774998E-3 -1.6657787E-3
-7.453149E-3 2.5007283E-4
-6.2059877E-3 1.3518428E-3
4.864945E-3 1.6006774E-3
-7.215299E-3 -2.519743E-4
7.3337094E-3 -4.1489932E-4
3.722087E-3 -6.862549E-5
-7.638583E-3 1.3498485E-4
1.6526887E-3 -5.0806855E-3
3.0138663E-3 1.465481E-3
3.5751268E-4 -6.001581E-3
6.7817993E-3 3.0268123E-7
7.607983E-3 -1.0801308E-4
-6.7227907E-3 -3.8395508E-4
-6.7574587E-3 -4.1466556E-4
-5.0740642E-3 -1.2748592E-5
7.068933E-3 1.3088147E-4
-5.6431904E-3 6.3172297E-4
9.697003E-4 1.3450134E-4
-5.5219787E-3 -1.7075547E-3
-5.170414E-3 -6.355155E-4
-1.1704701E-3 -5.0156033E-3
5.4165605E-3 1.085433E-3
-5.1026423E-3 -1.5390641E-3
1.3704578E-3 -2.1782187E-3
7.398996E-3 -2.848651E-4
-6.041991E-3 -5.4044696E-4
-3.1367422E-3 -3.329343E-3
-6.2677464E-3 9.909999E-4
1.4783283E-4 7.592536E-3
7.48132E-4 5.6497576E-3
-6.2907524E-3 5.2028034E-5
6.5297387E-3 -7.391819E-4
-4.2747348E-4 6.226683E-3
3.1126713E-4 9.320493E-4
-5.210549E-3 2.104438E-3
-4.3034805E-5 6.7225713E-3
-7.2579933E-3 4.6818992E-4
-5.742713E-3 1.2980624E-3
6.5329607E-4 -1.4098714E-3
6.433944E-3 6.0017215E-4
4.0080096E-4 -7.084953E-3
-1.5417837E-4 6.366206E-3
-1.5938636E-4 7.2089015E-3
1.7607168E-3 1.0890277E-2
3.4205092E-4 -4.89511E-3
1.2338939E-2 -3.6102693E-4
-8.407748E-5 7.593714E-3
1.340205E-2 0
6.744716E-3 7.0982607E-4
-2.5797798E-3 8.020159E-3
-3.8249922E-4 1.1555076E-2
-5.7537483E-5 -1.3497322E-2
-7.9605036E-4 1.1701874E-2
2.0906853E-3 -1.0400329E-2
1.4258424E-3 -8.652346E-3
9.894058E-4 -1.0415512E-2
-2.8081662E-5 -1.2833832E-2
1.6778012E-4 -1.1713959E-2
1.5271696E-3 8.780119E-3
6.2108696E-3 -1.0739233E-3
-3.7612807E-4 -1.2891223E-2
-4.597065E-3 5.56035E-3
-1.9305036E-3 -6.0500135E-3
-1.5813457E-4 1.3285658E-2
1.0828792E-4 1.3248595E-2
-3.4860134E-4 1.2871612E-2
3.6986588E-4 -1.2979208E-2
-6.7949663E-3 -2.7509453E-3
-4.4486653E-3 -1.5522661E-3
-2.5686023E-3 8.533374E-3
1.7947228E-4 1.3330773E-2
1.1240265E-2 1.1784699E-3
9.1492827E-4 1.2527693E-2
7.2397524E-5 1.34932045E-2
6.6417707E-3 -4.161935E-3
-3.4908508E-3 -3.1727285E-3
-1.9856056E-3 8.92704E-3
5.0736202E-5 1.0815727E-2
-2.9510707E-5 -1.3449649E-2
-1.4611803E-3 1.0984246E-2
1.9448644E-3 9.140896E-3
1.4884061E-3 -6.996217E-3
1.2509316E-3 -1.0892629E-2
-1.9506193E-3 -9.824652E-3
-2.5845968E-4 1.2829997E-2
-1.4104669E-3 1.0780856E-2
9.4900583E-4 -8.3995275E-3
8.561508E-5 1.3461929E-2
-3.151229E-3 -9.247849E-3
-2.939729E-3 -8.820981E-3
1.2924306E-3 -7.5401524E-3
2.7418568E-5 1.0060875E-2
-1.1942187E-5 -1.33524705E-2
-7.2919787E-4 1.2360028E-2
1.9272316E-4 -1.3166592E-2
3.5381443E-3 -7.919549E-3
-2.429979E-3 -9.970075E-3
2.4781135E-4 3.1588518E-3
1.668744E-3 1.071251E-2
-1.596085E-3 9.009865E-3
-1.8404096E-3 6.8027168E-3
-6.169615E-5 -1.0459363E-2
1.0269744E-3 -8.35335E-3
1.29801575E-2 1.7076709E-4
3.6443592E-4 1.1317742E-2
-4.097638E-3 -2.200684E-3
6.9703197E-4 1.097154E-2
3.2840486E-4 1.2903258E-2
3.950183E-5 1.3461958E-2
-2.004187E-3 7.838959E-3
-7.2378825E-5 -1.3234737E-2
1.1990246E-3 1.1974295E-2
1.4649608E-4 -1.3199146E-2
-1.8159641E-3 -9.728443E-3
-5.91367E-3 -5.042729E-3
-1.7487006E-4 -1.3237233E-2
3.8658648E-3 -8.389668E-3
5.8247626E-4 1.4910413E-3
-1.4378419E-3 9.004734E-3
-4.040646E-4 -1.240458E-2
3.0074962E-3 -6.104097E-3
-2.956734E-4 -1.3157242E-2
-2.2643027E-3 -1.097794E-2
-2.919722E-3 8.553753E-3
5.856274E-4 -1.2727706E-2
5.888713E-4 1.294969E-2
4.8377566E-5 6.569599E-3
-8.895738E-5 -1.3482222E-2
8.933447E-3 3.0157205E-3
-2.6449778E-3 5.289849E-3
1.058383E-2 7.481536E-4
-1.3303988E-4 1.19676385E-2
4.1959058E-5 1.3427697E-2
8.089073E-4 -1.1856011E-2
8.6377823E-4 -1.1916588E-2
1.2163638E-4 -8.953806E-3
-3.690784E-4 1.2471784E-2
-1.0045244E-3 -9.970717E-3
-2.5629706E-4 1.7085739E-3
3.1211628E-3 -9.711112E-3
1.2224971E-3 -9.111662E-3
8.873759E-3 -1.9674979E-3
-2.0212634E-3 9.537239E-3
2.8156394E-3 -8.974414E-3
3.8170626E-3 2.4609661E-3
3.581282E-4 1.3062359E-2
1.0717623E-3 -1.0651567E-2
5.936482E-3 -5.4702675E-3
-1.6263264E-3 -1.1079873E-2
-1.3401218E-2 1.12529924E-4
-9.984581E-3 1.2098195E-3
3.1099124E-5 -1.1102124E-2
1.1768324E-3 1.1537283E-2
-1.0979695E-2 -8.760099E-4
-1.650842E-3 5.310733E-4
-3.6118347E-3 -9.236023E-3
-1.1862285E-2 -2.072909E-4
-6.843913E-4 -1.2817118E-2
-2.1784494E-3 -1.0159361E-2
2.4751946E-3 1.1803993E-3
-1.1848154E-3 1.1342067E-2
1.249478E-2 8.4571046E-4
-1.1231246E-2 -3.9645995E-4
-1.2718225E-2 -4.221153E-4
1.4628907E-3 5.387387E-3
-8.712401E-5 -2.4816296E-3
6.190573E-3 -8.352101E-4
3.5988045E-4 3.826066E-3
6.744716E-3 -7.0982607E-4
3.4319407E-3 0
-8.735204E-4 4.1728606E-3
4.1950642E-4 5.835466E-3
-7.4382825E-4 -6.7896144E-3
2.1915746E-4 5.931247E-3
5.013153E-4 -5.3448E-3
2.5930675E-4 -4.429898E-3
-5.3718497E-5 -5.2941134E-3
-6.93863E-4 -6.4572664E-3
-5.35981E-4 -5.904053E-3
1.2335934E-3 4.3377974E-3
3.0688029E-3 -8.694151E-4
-8.72061E-4 -6.467715E-3
-2.0190205E-3 3.0417808E-3
-1.291978E-3 -2.9424822E-3
6.2407844E-4 6.6945157E-3
7.561953E-4 6.661753E-3
5.06295E-4 6.496231E-3
-5.012917E-4 -6.5515055E-3
-3.5653356E-3 -1.024552E-3
-2.3210493E-3 -5.455744E-4
-8.4071327E-4 4.4305488E-3
7.963718E-4 6.699339E-3
5.719193E-3 -2.2523222E-6
1.1239633E-3 6.2562283E-3
7.510883E-4 6.7867553E-3
3.122105E-3 -2.4463097E-3
-1.9248459E-3 -1.411818E-3
-5.2646425E-4 4.5977873E-3
5.983774E-4 5.440435E-3
-7.2719867E-4 -6.767107E-3
-1.5358419E-4 5.605322E-3
1.4629108E-3 4.4972394E-3
3.7850766E-4 -3.5997478E-3
5.2627096E-5 -5.548079E-3
-1.5020214E-3 -4.8410418E-3
5.4945546E-4 6.4705135E-3
-1.3883453E-4 5.5002775E-3
3.272413E-5 -4.2774095E-3
7.5608405E-4 6.7703156E-3
-2.0756903E-3 -4.4871704E-3
-1.9466423E-3 -4.283547E-3
2.5107214E-4 -3.8631093E-3
5.4666284E-4 5.061784E-3
-7.1321026E-4 -6.719132E-3
2.876602E-4 6.258928E-3
-6.003652E-4 -6.6364263E-3
1.3611555E-3 -4.1729864E-3
-1.750966E-3 -4.8888386E-3
2.92019E-4 1.5765986E-3
1.4071894E-3 5.302794E-3
-3.2604745E-4 4.6188394E-3
-5.6590553E-4 3.5210107E-3
-5.850188E-4 -5.2605118E-3
7.440835E-5 -4.2582992E-3
6.5414393E-3 -6.015406E-4
7.828389E-4 5.676465E-3
-2.1787344E-3 -8.904891E-4
9.3188474E-4 5.4846196E-3
8.4868114E-4 6.4763003E-3
7.3287886E-4 6.772773E-3
-5.9344486E-4 4.0511843E-3
-7.373896E-4 -6.65668E-3
1.2376275E-3 5.9626787E-3
-6.2535366E-4 -6.650361E-3
-1.4291593E-3 -4.799755E-3
-3.2431968E-3 -2.224592E-3
-7.891017E-4 -6.652508E-3
1.501185E-3 -4.426936E-3
3.721085E-4 7.195311E-4
-2.4668174E-4 4.6078763E-3
-8.6034543E-4 -6.2213275E-3
1.1902552E-3 -3.2312365E-3
-8.4566046E-4 -6.605854E-3
-1.7209684E-3 -5.4048314E-3
-1.0163385E-3 4.4594016E-3
-3.7938723E-4 -6.4363624E-3
9.82223E-4 6.485872E-3
3.7229861E-4 3.3036538E-3
-7.588407E-4 -6.780351E-3
4.6555707E-3 1.0445405E-3
-1.0509402E-3 2.802258E-3
5.366043E-3 -1.8404603E-4
5.669002E-4 6.0298797E-3
7.323009E-4 6.7554E-3
-2.2085097E-4 -6.009499E-3
-1.9644499E-4 -6.0428916E-3
-4.1301432E-4 -4.512534E-3
4.7481293E-4 6.296097E-3
-1.0336257E-3 -4.9646595E-3
-3.8491205E-5 8.734314E-4
1.0564172E-3 -5.0525237E-3
1.326441E-4 -4.6502836E-3
4.361601E-3 -1.4601524E-3
-5.1209086E-4 4.9067647E-3
9.4167807E-4 -4.665591E-3
2.0513174E-3 1.0363391E-3
8.7206624E-4 6.5547945E-3
-2.4774528E-5 -5.4172724E-3
2.6978666E-3 -3.0673866E-3
-1.4052993E-3 -5.4899203E-3
-6.7383368E-3 7.6641346E-4
-4.960763E-3 1.1376771E-3
-5.7236163E-4 -5.588902E-3
1.203313E-3 5.7439227E-3
-5.5720382E-3 1.406679E-4
-8.0267503E-4 3.5470314E-4
-2.3068683E-3 -4.456823E-3
-5.9807925E-3 5.2395277E-4
-1.0232725E-3 -6.4140945E-3
-1.6344066E-3 -4.99742E-3
1.308185E-3 4.6295155E-4
4.450776E-6 5.770761E-3
6.332915E-3 -2.3616108E-4
-5.6732353E-3 3.9532912E-4
-6.4229304E-3 4.6117397E-4
6.178122E-3 -3.1499467E-3
-2.995212E-3 7.3757407E-4
-2.5911888E-3 -7.3144697E-3
4.5604743E-3 -1.4114104E-3
-2.5797798E-3 -8.020159E-3
-8.735204E-4 -4.1728606E-3
5.2960715E-3 0
6.9885063E-3 -1.9953554E-3
-8.066096E-3 2.632551E-3
7.1559595E-3 -1.7761318E-3
-6.626285E-3 7.5085025E-4
-5.452267E-3 8.1223884E-4
-6.423384E-3 1.4128085E-3
-7.674716E-3 2.4872073E-3
-7.042255E-3 2.1544325E-3
4.9603E-3 -2.6039984E-3
-1.8382048E-3 -3.510036E-3
-7.6420647E-3 2.7065354E-3
4.212364E-3 1.6806916E-3
-3.2488904E-3 2.3198428E-3
7.980946E-3 -2.4627433E-3
7.907483E-3 -2.6150437E-3
7.769833E-3 -2.2690624E-3
-7.838314E-3 2.2770483E-3
-3.3826922E-4 4.59583E-3
-7.258932E-5 2.961003E-3
5.601042E-3 -1.0547841E-4
7.942959E-3 -2.6734606E-3
-1.4584257E-3 -6.953333E-3
7.3208045E-3 -2.958992E-3
8.060772E-3 -2.6406506E-3
-3.769101E-3 -3.1734833E-3
-1.22669E-3 2.6997451E-3
5.7244003E-3 -5.301369E-4
6.462665E-3 -2.1122964E-3
-8.042963E-3 2.6066022E-3
6.854543E-3 -1.2399624E-3
5.095796E-3 -2.923405E-3
-4.473236E-3 4.5600827E-4
-6.759246E-3 1.3481454E-3
-5.5038673E-3 3.0584664E-3
7.727578E-3 -2.3149955E-3
6.723067E-3 -1.2311597E-3
-5.2091866E-3 1.0489258E-3
8.039512E-3 -2.6425403E-3
-4.9275854E-3 3.6659143E-3
-4.712848E-3 3.4571788E-3
-4.7610183E-3 6.779882E-4
6.0154297E-3 -1.9530402E-3
-7.98819E-3 2.5773826E-3
7.5369477E-3 -1.9428272E-3
-7.916353E-3 2.4191255E-3
-5.4203407E-3 -5.928785E-4
-5.4986198E-3 3.3733207E-3
1.842643E-3 -7.5634907E-4
6.0894443E-3 -3.0606892E-3
5.698986E-3 -7.791799E-4
4.425198E-3 -2.0811234E-4
-6.247298E-3 2.0502585E-3
-5.19656E-3 9.933782E-4
-2.3963777E-3 -7.800558E-3
6.7027006E-3 -2.3966571E-3
-5.281903E-4 2.8757532E-3
6.4315014E-3 -2.5290507E-3
7.6584537E-3 -2.6802935E-3
8.048406E-3 -2.6149505E-3
5.0768396E-3 -3.0957093E-4
-7.906102E-3 2.590887E-3
6.934949E-3 -3.0224787E-3
-7.926934E-3 2.453055E-3
-5.472213E-3 2.9593653E-3
-1.8793782E-3 4.509587E-3
-7.887867E-3 2.6527012E-3
-5.7647564E-3 -6.985019E-4
7.801588E-4 -6.3558266E-4
5.6654555E-3 -8.7288953E-4
-7.3454664E-3 2.6295786E-3
-4.231778E-3 -6.247831E-4
-7.816746E-3 2.7095957E-3
-6.1336453E-3 3.4681812E-3
5.680824E-3 1.00718855E-4
-7.729341E-3 2.0995187E-3
7.636101E-3 -2.8451015E-3
3.9221183E-3 -1.293542E-3
-8.051013E-3 2.648447E-3
8.507904E-5 -5.926523E-3
3.674728E-3 5.645777E-4
-1.5895806E-3 -6.4776717E-3
7.1873767E-3 -2.224053E-3
8.027431E-3 -2.6098262E-3
-7.2506745E-3 1.7981078E-3
-7.2974875E-3 1.776932E-3
-5.3816196E-3 1.6507403E-3
7.534506E-3 -2.1798448E-3
-5.773392E-3 2.520413E-3
1.071793E-3 -1.7551053E-4
-6.4121964E-3 1.5152356E-6
-5.6879926E-3 1.0223407E-3
-2.8855277E-3 -4.931577E-3
6.096424E-3 -6.262566E-4
-5.912525E-3 4.2541044E-5
7.379588E-4 -2.7579512E-3
7.7479417E-3 -2.728706E-3
-6.5804985E-3 1.4089632E-3
-4.416282E-3 -2.499576E-3
-6.31745E-3 3.1060192E-3
2.6469603E-3 7.998E-3
2.6459359E-3 5.7421704E-3
-6.649806E-3 2.1184532E-3
6.6777E-3 -2.9250772E-3
1.5892689E-3 6.7391787E-3
6.3558196E-4 8.8568265E-4
-4.8318454E-3 3.9392766E-3
2.1593396E-3 7.1386225E-3
-7.5383806E-3 2.8767441E-3
-5.6603113E-3 3.2592344E-3
2.2992994E-4 -1.708442E-3
7.015475E-3 -1.4742244E-3
-1.8990412E-3 -7.6400153E-3
1.9246663E-3 6.797405E-3
2.195544E-3 7.692193E-3
9.339207E-3 -1.8288796E-3
-4.2302636E-3 -1.5520392E-4
-6.634309E-4 -1.062817E-2
6.549603E-3 -1.4423644E-4
-3.8249922E-4 -1.1555076E-2
4.1950642E-4 -5.835466E-3
6.9885063E-3 1.9953554E-3
9.973555E-3 0
-1.1635575E-2 4.3482627E-4
1.0111925E-2 3.5236892E-4
-9.0267E-3 -1.5057328E-3
-7.5006364E-3 -9.82402E-4
-9.008359E-3 -5.557906E-4
-1.1064364E-2 3.9049334E-4
-1.0104414E-2 1.8966262E-4
7.5265197E-3 -1.5672935E-3
-1.1031834E-3 -5.324282E-3
-1.1103911E-2 6.9221266E-4
4.9252645E-3 3.8048362E-3
-5.161146E-3 1.8371248E-3
1.1459237E-2 -2.4283571E-4
1.1419679E-2 -4.7148383E-4
1.110769E-2 -6.6800465E-5
-1.1201062E-2 5.1537118E-5
-2.1778988E-3 5.937046E-3
-1.2113776E-3 3.8798845E-3
7.4306745E-3 1.9710704E-3
1.1488499E-2 -5.3520343E-4
6.95261E-4 -9.724847E-3
1.0775105E-2 -1.146384E-3
1.1631601E-2 -4.4752058E-4
-3.7779252E-3 -5.607666E-3
-2.6358557E-3 3.1003174E-3
7.7534486E-3 1.457183E-3
9.323733E-3 -3.5242827E-4
-1.1595272E-2 4.0930143E-4
9.5121795E-3 9.4631687E-4
7.825656E-3 -1.9377216E-3
-6.074528E-3 -1.0836101E-3
-9.427188E-3 -7.676585E-4
-8.415017E-3 1.9621982E-3
1.1069235E-2 -1.4333226E-4
9.335371E-3 9.0839696E-4
-7.2690505E-3 -5.784954E-4
1.1604259E-2 -4.5802398E-4
-7.88344E-3 2.9808856E-3
-7.521436E-3 2.7863502E-3
-6.5379096E-3 -8.991187E-4
8.673576E-3 -3.1078103E-4
-1.1511988E-2 3.9138042E-4
1.0677468E-2 2.7594567E-4
-1.1357568E-2 2.0961599E-4
-6.9291135E-3 -2.824516E-3
-8.526719E-3 2.379646E-3
2.7164489E-3 -3.038145E-4
9.188562E-3 -1.7445086E-3
7.813742E-3 1.1189793E-3
5.917741E-3 1.3926257E-3
-9.016168E-3 3.5170786E-4
-7.2314613E-3 -6.470367E-4
-2.2322506E-4 -1.11962E-2
9.747612E-3 -6.3722424E-4
-1.7804535E-3 3.5957394E-3
9.439628E-3 -9.1410376E-4
1.1115652E-2 -6.5140985E-4
1.1605601E-2 -4.1826724E-4
6.8158503E-3 1.5042581E-3
-1.1408754E-2 4.4012777E-4
1.0289864E-2 -1.3755343E-3
-1.1384315E-2 2.5040132E-4
-8.33591E-3 1.8433544E-3
-4.1789976E-3 5.242612E-3
-1.1407982E-2 5.2856596E-4
-7.3437975E-3 -3.0936552E-3
1.2689325E-3 -5.447584E-4
7.8048026E-3 9.826905E-4
-1.0683537E-2 7.024103E-4
-5.3487085E-3 -2.418812E-3
-1.1335568E-2 6.3043804E-4
-9.400415E-3 2.2655667E-3
7.4582654E-3 2.2732199E-3
-1.0990379E-2 -1.4166742E-4
1.1148251E-2 -8.773064E-4
5.662843E-3 -2.2920917E-4
-1.1621661E-2 4.6148497E-4
2.345152E-3 -7.7883727E-3
4.636328E-3 2.129492E-3
3.4298233E-4 -9.146595E-3
1.0322141E-2 -2.2685561E-4
1.1575991E-2 -4.1940802E-4
-1.0245188E-2 -3.5905515E-4
-1.0298983E-2 -4.0463498E-4
-7.7233277E-3 1.5067101E-4
1.07635455E-2 -3.773453E-5
-8.567956E-3 1.1506553E-3
1.4804254E-3 1.7221275E-4
-8.461876E-3 -2.413868E-3
-7.890849E-3 -7.9397165E-4
-1.9496114E-3 -7.594688E-3
8.2805725E-3 1.4705113E-3
-7.817985E-3 -2.1714752E-3
2.0128733E-3 -3.3612591E-3
1.1251978E-2 -6.8157754E-4
-9.214234E-3 -6.2006025E-4
-4.885824E-3 -4.9622357E-3
-9.50651E-3 1.7184211E-3
4.7949704E-4 1.1551146E-2
1.3280542E-3 8.574048E-3
-9.572998E-3 2.9004505E-4
9.91371E-3 -1.3439273E-3
-4.4191987E-4 9.4915535E-3
5.050002E-4 1.4081778E-3
-7.860096E-3 3.3776767E-3
1.5983032E-4 1.0233427E-2
-1.10312225E-2 9.558783E-4
-8.697097E-3 2.1681825E-3
9.4708224E-4 -2.1677702E-3
9.812801E-3 6.97826E-4
3.7255525E-4 -1.0796976E-2
-2.127916E-5 9.694752E-3
-9.59473E-7 1.0977537E-2
-1.0975253E-2 1.726479E-3
4.9284403E-3 3.6549804E-4
3.1062044E-4 1.2428203E-2
-7.647335E-3 -1.1727647E-4
-5.7537483E-5 1.3497322E-2
-7.4382825E-4 6.7896144E-3
-8.066096E-3 -2.632551E-3
-1.1635575E-2 -4.3482627E-4
1.3593518E-2 0
-1.1781642E-2 -8.519474E-4
1.0465287E-2 2.1501977E-3
8.707732E-3 1.4731245E-3
1.0485305E-2 1.0411551E-3
1.2925183E-2 2.6816459E-5
1.179651E-2 2.1926276E-4
-8.849091E-3 1.5003312E-3
1.0548935E-3 6.259632E-3
1.2984477E-2 -3.2345747E-4
-5.5801417E-3 -4.6536163E-3
6.101309E-3 -1.9182533E-3
-1.3379424E-2 -2.1629612E-4
-1.3343241E-2 5.217907E-5
-1.2961617E-2 -4.0633927E-4
1.3069885E-2 4.282173E-4
2.7996728E-3 -6.8314592E-3
1.5823997E-3 -4.4736257E-3
-8.583007E-3 -2.6234968E-3
-1.3426308E-2 1.2351629E-4
-1.235104E-3 1.1315111E-2
-1.2620677E-2 8.6764863E-4
-1.3589433E-2 1.49832285E-5
4.1630063E-3 6.706853E-3
3.2102694E-3 -3.5020453E-3
-8.981975E-3 -2.038046E-3
-1.089283E-2 4.6632017E-6
1.3545385E-2 2.8021492E-5
-1.1056056E-2 -1.5187247E-3
-9.214225E-3 1.9194465E-3
7.039561E-3 1.5290229E-3
1.0964692E-2 1.3065889E-3
9.9028675E-3 -1.9223071E-3
-1.2920093E-2 -3.1537798E-4
-1.0851438E-2 -1.4667778E-3
8.455164E-3 9.918126E-4
-1.3557993E-2 2.8429267E-5
9.327117E-3 -3.1339275E-3
8.896308E-3 -2.9227568E-3
7.588205E-3 1.3339893E-3
-1.0132513E-2 -1.557924E-5
1.344744E-2 4.5297293E-5
-1.2444761E-2 -7.874452E-4
1.3259362E-2 2.5061922E-4
7.960658E-3 3.597296E-3
1.0051382E-2 -2.4044495E-3
-3.182371E-3 2.3601156E-4
-1.0795825E-2 1.634616E-3
-9.06706E-3 -1.6461122E-3
-6.843174E-3 -1.8826979E-3
1.0533981E-2 -1.723108E-5
8.408322E-3 1.0701369E-3
-2.2770694E-4 1.3071698E-2
-1.1399762E-2 3.1843773E-4
2.23392E-3 -4.1173194E-3
-1.1052526E-2 6.5488426E-4
-1.2996394E-2 2.7534316E-4
-1.3557825E-2 -1.8012073E-5
-7.88608E-3 -2.0520885E-3
1.332913E-2 -1.607402E-5
-1.2064565E-2 1.1561406E-3
1.3292346E-2 2.042035E-4
9.805395E-3 -1.7871076E-3
5.1039644E-3 -5.9340596E-3
1.3332083E-2 -1.19283235E-4
8.432711E-3 3.9293645E-3
-1.5041413E-3 5.802156E-4
-9.062573E-3 -1.4867218E-3
1.2494495E-2 -3.536821E-4
6.134577E-3 3.0550815E-3
1.3252043E-2 -2.4128877E-4
1.10657E-2 -2.2332687E-3
-8.602024E-3 -2.9772003E-3
1.281567E-2 6.444329E-4
-1.3044274E-2 5.3746265E-4
-6.616508E-3 2.051707E-5
1.3578446E-2 -3.1708143E-5
-3.0755112E-3 8.984005E-3
-5.3160978E-3 -2.6864908E-3
-7.989105E-4 1.0655856E-2
-1.2052142E-2 -1.853645E-4
-1.3523332E-2 -1.5389785E-5
1.1936819E-2 8.655573E-4
1.1997593E-2 9.2107867E-4
9.016933E-3 1.6094102E-4
-1.2558857E-2 -4.2524535E-4
1.0045908E-2 -9.688592E-4
-1.7196194E-3 -2.6545417E-4
9.766746E-3 3.185042E-3
9.171186E-3 1.2703057E-3
1.9433878E-3 8.945286E-3
-9.596358E-3 -2.076577E-3
9.026122E-3 2.8741837E-3
-2.4948479E-3 3.8336315E-3
-1.3156753E-2 3.0459487E-4
1.0722686E-2 1.1251098E-3
5.4836683E-3 6.0021672E-3
1.1165619E-2 -1.5903197E-3
-5.5795797E-5 -1.3496966E-2
-1.1755545E-3 -1.0060752E-2
1.1180913E-2 7.8983736E-5
-1.162435E-2 1.1356664E-3
9.2937483E-4 -1.1053986E-2
-5.277611E-4 -1.6648573E-3
9.317184E-3 -3.5978581E-3
2.5969112E-4 -1.1945721E-2
1.291117E-2 -6.342304E-4
1.0240933E-2 -2.1503193E-3
-1.1994167E-3 2.4877226E-3
-1.1417609E-2 -1.2419313E-3
-9.0536446E-4 1.2579971E-2
4.4749578E-4 -1.1309384E-2
4.7971742E-4 -1.28068235E-2
9.404161E-3 -2.1842103E-3
-4.294437E-3 -7.900407E-6
-1.0481316E-3 -1.0752185E-2
6.6353744E-3 -3.7763742E-4
-7.9605036E-4 -1.1701874E-2
2.1915746E-4 -5.931247E-3
7.1559595E-3 1.7761318E-3
1.0111925E-2 -3.5236892E-4
-1.1781642E-2 8.519474E-4
1.0264665E-2 0
-9.205132E-3 -1.2077066E-3
-7.639407E-3 -7.3103164E-4
-9.152975E-3 -2.452336E-4
-1.1204071E-2 7.8681874E-4
-1.02379E-2 5.4928614E-4
7.5755683E-3 -1.8549523E-3
-1.3065971E-3 -5.359174E-3
-1.1233509E-2 1.0941213E-3
5.1280227E-3 3.6836124E-3
-5.1678447E-3 2.0449578E-3
1.1609641E-2 -6.5106346E-4
1.1561455E-2 -8.8148616E-4
1.1259434E-2 -4.601657E-4
-1.1354643E-2 4.4798976E-4
-1.9983568E-3 6.0963607E-3
-1.0911062E-3 3.976512E-3
7.603404E-3 1.7358888E-3
1.1628979E-2 -9.4852125E-4
3.6132455E-4 -9.884331E-3
1.0884094E-2 -1.5429766E-3
1.1777164E-2 -8.646775E-4
-4.0284595E-3 -5.5519906E-3
-2.5628898E-3 3.236456E-3
7.912501E-3 1.2034678E-3
9.440635E-3 -6.8672857E-4
-1.1741681E-2 8.246447E-4
9.6775815E-3 6.2337733E-4
7.865766E-3 -2.2410878E-3
-6.1970893E-3 -8.840288E-4
-9.5851E-3 -4.4524265E-4
-8.46244E-3 2.2867266E-3
1.1217743E-2 -5.364003E-4
9.496981E-3 5.911785E-4
-7.390338E-3 -3.2970338E-4
1.1749071E-2 -8.7436085E-4
-7.887496E-3 3.3007662E-3
-7.527344E-3 3.0907425E-3
-6.660381E-3 -6.8060646E-4
8.78293E-3 -6.215332E-4
-1.1657875E-2 8.0353266E-4
1.0835354E-2 -9.746457E-5
-1.1507735E-2 6.1379035E-4
-7.1250377E-3 -2.618895E-3
-8.5609425E-3 2.7139122E-3
2.7434023E-3 -4.0400258E-4
9.254407E-3 -2.093346E-3
7.961683E-3 8.5844175E-4
6.049044E-3 1.202871E-3
-9.128831E-3 6.7513116E-4
-7.354649E-3 -4.0052328E-4
-6.2188774E-4 -1.1343647E-2
9.860334E-3 -9.904514E-4
-1.6781164E-3 3.70853E-3
9.538295E-3 -1.260291E-3
1.12468535E-2 -1.0531668E-3
1.1751835E-2 -8.340996E-4
6.9635576E-3 1.2843215E-3
-1.1551487E-2 8.4930885E-4
1.0384024E-2 -1.7581624E-3
-1.1533412E-2 6.5608684E-4
-8.386434E-3 2.1634388E-3
-4.051753E-3 5.4629925E-3
-1.15475785E-2 9.3894685E-4
-7.5549833E-3 -2.877117E-3
1.2672909E-3 -5.97148E-4
7.9478035E-3 7.205781E-4
-1.0806941E-2 1.0896085E-3
-5.508373E-3 -2.263398E-3
-1.1470561E-2 1.0396736E-3
-9.450791E-3 2.6291183E-3
7.642053E-3 2.0412551E-3
-1.1147862E-2 2.4466115E-4
1.1271924E-2 -1.2833489E-3
5.73331E-3 -4.324593E-4
-1.1766592E-2 8.7848457E-4
2.1025222E-3 -7.979282E-3
4.7758874E-3 1.9952331E-3
2.458853E-5 -9.285611E-3
1.0457334E-2 -5.946875E-4
1.1721776E-2 -8.342098E-4
-1.0400013E-2 -2.070185E-6
-1.0456164E-2 -4.6382796E-5
-7.825156E-3 4.2562955E-4
1.0911543E-2 -4.1853718E-4
-8.646172E-3 1.4693281E-3
1.5070487E-3 1.2229811E-4
-8.664556E-3 -2.1483966E-3
-8.028376E-3 -5.2620063E-4
-2.2449826E-3 -7.6311743E-3
8.447409E-3 1.1983574E-3
-8.003168E-3 -1.9253897E-3
1.922045E-3 -3.479008E-3
1.1384005E-2 -1.0885698E-3
-9.363977E-3 -3.031207E-4
-5.1289257E-3 -4.8584626E-3
-9.577688E-3 2.07813E-3
8.942553E-4 1.1694464E-2
1.6494032E-3 8.646081E-3
-9.6955625E-3 6.3228584E-4
1.0003768E-2 -1.7128272E-3
-1.1271125E-4 9.638851E-3
5.6175777E-4 1.4098727E-3
-7.849812E-3 3.7022373E-3
5.235979E-4 1.0369755E-2
-1.1150495E-2 1.3588765E-3
-8.741155E-3 2.5055348E-3
8.836338E-4 -2.2313057E-3
9.973595E-3 3.6081797E-4
-3.7362531E-6 -1.0959933E-2
3.2094456E-4 9.830006E-3
3.8686686E-4 1.1129871E-2
-8.176464E-3 3.0652157E-3
3.8520882E-3 -4.981844E-4
2.2050084E-3 9.519008E-3
-5.9060296E-3 1.1193536E-3
2.0906853E-3 1.0400329E-2
5.013153E-4 5.3448E-3
-6.626285E-3 -7.5085025E-4
-9.0267E-3 1.5057328E-3
1.0465287E-2 -2.1501977E-3
-9.205132E-3 1.2077066E-3
8.3970595E-3 0
6.9368663E-3 -2.4325406E-4
8.237045E-3 -8.569887E-4
9.954996E-3 -2.0238364E-3
9.116502E-3 -1.6971456E-3
-6.575359E-3 2.5547978E-3
1.8022713E-3 4.652262E-3
9.945239E-3 -2.302882E-3
-5.032102E-3 -2.7000383E-3
4.393809E-3 -2.441906E-3
-1.0334674E-2 1.9498118E-3
-1.0264351E-2 2.1507808E-3
-1.0043076E-2 1.7374146E-3
1.012989E-2 -1.7376975E-3
1.0748055E-3 -5.702205E-3
5.1061745E-4 -3.6944258E-3
-7.0228092E-3 -6.621161E-4
-1.0317018E-2 2.2188406E-3
8.389299E-4 8.906568E-3
-9.579079E-3 2.6642948E-3
-1.0459772E-2 2.1610865E-3
4.2658653E-3 4.50493E-3
1.9175536E-3 -3.2039254E-3
-7.237357E-3 -1.4828514E-4
-8.385361E-3 1.7265978E-3
1.0432662E-2 -2.1210115E-3
-8.751993E-3 5.796014E-4
-6.7901714E-3 2.93522E-3
5.661428E-3 6.3649044E-5
8.6480975E-3 -7.284669E-4
7.3198867E-3 -3.0463499E-3
-9.996721E-3 1.8008752E-3
-8.586246E-3 5.872276E-4
6.666288E-3 -5.738521E-4
-1.043344E-2 2.1664654E-3
6.6849804E-3 -3.8880734E-3
6.3867136E-3 -3.6573538E-3
6.052964E-3 -1.732855E-4
-7.803215E-3 1.5907482E-3
1.035999E-2 -2.0922183E-3
-9.705446E-3 1.3622561E-3
1.0247671E-2 -1.9043967E-3
6.697711E-3 1.5102602E-3
7.3579587E-3 -3.4410306E-3
-2.4126905E-3 6.8508054E-4
-8.052858E-3 2.966111E-3
-7.2408672E-3 1.6691335E-4
-5.5661784E-3 -3.6699823E-4
8.107105E-3 -1.6795114E-3
6.642615E-3 -5.0614297E-4
1.8923515E-3 1.0099569E-2
-8.726003E-3 2.0483497E-3
1.0685653E-3 -3.5231716E-3
-8.405456E-3 2.252446E-3
-9.962024E-3 2.267725E-3
-1.0440656E-2 2.1306851E-3
-6.395878E-3 -3.3244258E-4
1.0259198E-2 -2.1207521E-3
-9.105311E-3 2.7984327E-3
1.0265722E-2 -1.9453482E-3
7.266231E-3 -2.9268456E-3
2.9907674E-3 -5.37581E-3
1.0245147E-2 -2.2006775E-3
7.1136593E-3 1.691242E-3
-1.0662207E-3 6.8461476E-4
-7.2122E-3 2.8891358E-4
9.563234E-3 -2.2486467E-3
5.206094E-3 1.3816698E-3
1.0164228E-2 -2.2819457E-3
8.165933E-3 -3.4696858E-3
-7.0933965E-3 -9.3141495E-4
9.968377E-3 -1.5310275E-3
-9.957424E-3 2.477097E-3
-5.090628E-3 1.0623826E-3
1.0448667E-2 -2.172225E-3
-9.4668055E-4 7.403024E-3
-4.5176656E-3 -1.2273669E-3
1.0704638E-3 8.330029E-3
-9.307944E-3 1.7636782E-3
-1.0413686E-2 2.1272472E-3
9.326751E-3 -1.2217747E-3
9.382321E-3 -1.1886432E-3
6.967353E-3 -1.3023776E-3
-9.735994E-3 1.6591516E-3
7.580825E-3 -2.334942E-3
-1.365878E-3 6.76401E-5
8.022961E-3 9.0719253E-4
7.2615864E-3 -4.7270674E-4
2.911111E-3 6.579336E-3
-7.71645E-3 -8.07669E-5
7.4036047E-3 7.850219E-4
-1.31432E-3 3.346041E-3
-1.00808535E-2 2.3156109E-3
8.433077E-3 -8.299023E-4
5.1711416E-3 3.7535122E-3
8.344558E-3 -2.9905017E-3
-2.177881E-3 -1.0382128E-2
-2.4964192E-3 -7.559557E-3
8.6203795E-3 -1.7077689E-3
-8.769639E-3 2.7130377E-3
-1.0329983E-3 -8.657176E-3
-6.696533E-4 -1.1982489E-3
6.603949E-3 -4.24367E-3
-1.6896226E-3 -9.237769E-3
9.839643E-3 -2.5305422E-3
7.5440877E-3 -3.2753656E-3
-5.298956E-4 2.1049527E-3
-8.986559E-3 8.4988656E-4
1.2928606E-3 9.828193E-3
-1.4443826E-3 -8.777577E-3
-1.6564379E-3 -9.935511E-3
-6.8434267E-3 2.2953318E-3
3.1966679E-3 -2.999626E-4
1.5458165E-3 7.927594E-3
-4.9114376E-3 7.5361383E-4
1.4258424E-3 8.652346E-3
2.5930675E-4 4.429898E-3
-5.452267E-3 -8.1223884E-4
-7.5006364E-3 9.82402E-4
8.707732E-3 -1.4731245E-3
-7.639407E-3 7.3103164E-4
6.9368663E-3 2.4325406E-4
5.737639E-3 0
6.829504E-3 -4.6934574E-4
8.282518E-3 -1.3835187E-3
7.580367E-3 -1.1379281E-3
-5.505958E-3 1.9200546E-3
1.3540973E-3 3.895475E-3
8.28254E-3 -1.6143234E-3
-4.078836E-3 -2.3762945E-3
3.7004948E-3 -1.8899908E-3
-8.594028E-3 1.311368E-3
-8.541756E-3 1.479427E-3
-8.346984E-3 1.144353E-3
8.41871E-3 -1.1420713E-3
1.053091E-3 -4.6794945E-3
5.2884815E-4 -3.037198E-3
-5.782409E-3 -7.5042195E-4
-8.5872365E-3 1.5341262E-3
4.3503178E-4 7.382078E-3
-7.990524E-3 1.923496E-3
-8.703493E-3 1.4822797E-3
3.3935567E-3 3.8451308E-3
1.6769184E-3 -2.591235E-3
-5.9745335E-3 -3.3215797E-4
-6.9772215E-3 1.1834387E-3
8.679937E-3 -1.4499585E-3
-7.2468696E-3 2.2527613E-4
-5.694437E-3 2.2281008E-3
4.6751E-3 2.165866E-4
7.165354E-3 -3.512655E-4
6.135257E-3 -2.3045607E-3
-8.310527E-3 1.1981204E-3
-7.110166E-3 2.3637839E-4
5.523689E-3 -2.8094774E-4
-8.681895E-3 1.4874857E-3
5.6351405E-3 -3.0183066E-3
5.3820573E-3 -2.8363483E-3
5.005414E-3 3.219581E-5
-6.492371E-3 1.0880766E-3
8.619066E-3 -1.4282772E-3
-8.057197E-3 8.4421225E-4
8.52084E-3 -1.2763704E-3
5.4892735E-3 1.4416615E-3
6.178143E-3 -2.6295062E-3
-2.0129858E-3 4.960566E-4
-6.738445E-3 2.2170413E-3
-5.9865643E-3 -7.187226E-5
-4.587626E-3 -4.64426E-4
6.745988E-3 -1.1526013E-3
5.5021713E-3 -2.2569855E-4
1.2707103E-3 8.398142E-3
-7.2679482E-3 1.4393725E-3
9.848117E-4 -2.8795605E-3
-7.0090545E-3 1.6172635E-3
-8.295388E-3 1.5847936E-3
-8.68682E-3 1.4577184E-3
-5.2740467E-3 -4.5991485E-4
8.536628E-3 -1.4547693E-3
-7.6030255E-3 2.0480324E-3
8.536938E-3 -1.3096778E-3
6.08747E-3 -2.207392E-3
2.6264244E-3 -4.3543535E-3
8.527336E-3 -1.5212034E-3
5.8276476E-3 1.6032218E-3
-9.0064475E-4 5.3467765E-4
-5.9664166E-3 2.9743462E-5
7.965392E-3 -1.580585E-3
4.2607635E-3 1.2922217E-3
8.4628435E-3 -1.5906835E-3
6.846445E-3 -2.6297725E-3
-5.8329203E-3 -9.749364E-4
8.279296E-3 -9.7601826E-4
-8.297653E-3 1.7578905E-3
-4.236178E-3 7.301714E-4
8.69464E-3 -1.4918025E-3
-9.96517E-4 6.088264E-3
-3.6965183E-3 -1.144808E-3
6.430053E-4 6.9125034E-3
-7.7404464E-3 1.1873452E-3
-8.66444E-3 1.4556596E-3
7.7402852E-3 -7.3912967E-4
7.7852327E-3 -7.101499E-4
5.7935063E-3 -8.7406574E-4
-8.091033E-3 1.0885949E-3
6.330211E-3 -1.7093029E-3
-1.1303205E-3 1.6309872E-5
6.601542E-3 9.81855E-4
6.0125394E-3 -1.8014594E-4
2.2142923E-3 5.519565E-3
-6.372271E-3 -2.9025928E-4
6.0934257E-3 8.6298643E-4
-1.1826999E-3 2.7261125E-3
-8.394941E-3 1.6209098E-3
6.990663E-3 -4.4129093E-4
4.1631795E-3 3.2506043E-3
6.980127E-3 -2.2287404E-3
-1.4984029E-3 -8.639837E-3
-1.8433165E-3 -6.3173193E-3
7.1708257E-3 -1.1610755E-3
-7.323252E-3 1.9872112E-3
-6.0257775E-4 -7.181675E-3
-5.1849306E-4 -1.0092807E-3
5.5785016E-3 -3.314415E-3
-1.1282004E-3 -7.6803295E-3
8.201903E-3 -1.8054537E-3
6.327105E-3 -2.4872571E-3
-4.987286E-4 1.723565E-3
-7.448477E-3 4.41766E-4
7.83328E-4 8.156589E-3
-9.3893684E-4 -7.2930576E-3
-1.0805735E-3 -8.255779E-3
-8.333484E-3 2.17233E-3
3.829527E-3 -9.5553754E-5
1.1914972E-3 9.5626535E-3
-5.9077237E-3 4.9526413E-4
9.894058E-4 1.0415512E-2
-5.3718497E-5 5.2941134E-3
-6.423384E-3 -1.4128085E-3
-9.008359E-3 5.557906E-4
1.0485305E-2 -1.0411551E-3
-9.152975E-3 2.452336E-4
8.237045E-3 8.569887E-4
6.829504E-3 4.6934574E-4
8.1675425E-3 0
9.971843E-3 -9.692812E-4
9.115985E-3 -7.343912E-4
-6.7107975E-3 1.8350442E-3
1.2931256E-3 4.747546E-3
9.990751E-3 -1.2440048E-3
-4.6606497E-3 -3.1621535E-3
4.559297E-3 -1.9469487E-3
-1.0336732E-2 8.579177E-4
-1.028826E-2 1.0622338E-3
-1.0029014E-2 6.7932805E-4
1.0114202E-2 -6.707452E-4
1.6362813E-3 -5.483852E-3
8.779336E-4 -3.5719124E-3
-6.821408E-3 -1.3662339E-3
-1.0346869E-2 1.1236222E-3
-8.604522E-5 8.822465E-3
-9.6684545E-3 1.6359003E-3
-1.0481007E-2 1.0523996E-3
3.7248097E-3 4.8544514E-3
2.2079998E-3 -2.9471694E-3
-7.084308E-3 -8.8409137E-4
-8.401783E-3 8.379009E-4
1.0450325E-2 -1.0158547E-3
-8.644368E-3 -3.246568E-4
-6.9603412E-3 2.1862935E-3
5.547048E-3 6.4023136E-4
8.557646E-3 1.6802405E-4
7.4913036E-3 -2.2412445E-3
-9.990017E-3 7.463102E-4
-8.482558E-3 -3.0025936E-4
6.5978216E-3 1.1743279E-4
-1.0455727E-2 1.0603624E-3
6.9544013E-3 -3.131725E-3
6.6382717E-3 -2.935843E-3
5.9553045E-3 4.4777142E-4
-7.816867E-3 7.640528E-4
1.03760995E-2 -9.950268E-4
-9.659528E-3 3.457766E-4
1.0246753E-2 -8.2224683E-4
6.4159455E-3 2.1650372E-3
7.5689317E-3 -2.6245182E-3
-2.4366325E-3 4.2579087E-4
-8.202119E-3 2.0877288E-3
-7.119921E-3 -5.7525735E-4
-5.4226546E-3 -9.2807895E-4
8.124025E-3 -8.2010997E-4
6.5676896E-3 1.8143553E-4
8.2554686E-4 1.0100243E-2
-8.768771E-3 1.1187561E-3
1.4077716E-3 -3.3469782E-3
-8.475163E-3 1.3516776E-3
-1.0003628E-2 1.2078054E-3
-1.0459154E-2 1.0245277E-3
-6.2400694E-3 -9.788595E-4
1.028014E-2 -1.0333037E-3
-9.217403E-3 1.8158336E-3
1.0268638E-2 -8.6057576E-4
7.426475E-3 -2.1294935E-3
3.4824207E-3 -4.9681365E-3
1.0274514E-2 -1.1131399E-3
6.8054963E-3 2.3850212E-3
-1.1157736E-3 5.627523E-4
-7.1042506E-3 -4.526562E-4
9.61049E-3 -1.2297899E-3
4.965876E-3 1.8866655E-3
1.02034295E-2 -1.201118E-3
8.364433E-3 -2.5701672E-3
-6.863166E-3 -1.6376054E-3
9.934673E-3 -4.844973E-4
-1.0020483E-2 1.4136571E-3
-5.102046E-3 5.225975E-4
1.0471251E-2 -1.0644585E-3
-1.6841803E-3 7.1653365E-3
-4.306314E-3 -1.6650432E-3
1.9991718E-4 8.280542E-3
-9.31057E-3 7.8011747E-4
-1.0432347E-2 1.0239086E-3
9.273713E-3 -2.4662077E-4
9.324842E-3 -2.0844958E-4
6.967502E-3 -5.664839E-4
-9.719796E-3 6.338966E-4
7.6746657E-3 -1.516762E-3
-1.3467531E-3 -7.3047966E-5
7.7774893E-3 1.7087148E-3
7.1714534E-3 2.774058E-4
2.1841621E-3 6.7510633E-3
-7.561162E-3 -8.667548E-4
7.182403E-3 1.525661E-3
-1.6307655E-3 3.1481418E-3
-1.012508E-2 1.2426501E-3
8.357075E-3 4.657713E-5
4.6895235E-3 4.209743E-3
8.49075E-3 -2.0818838E-3
-1.0767978E-3 -1.04065575E-2
-1.6773327E-3 -7.670283E-3
8.630402E-3 -7.95445E-4
-8.879413E-3 1.766324E-3
-1.2977768E-4 -8.597631E-3
-5.346013E-4 -1.2437588E-3
6.911206E-3 -3.4888156E-3
-7.14635E-4 -9.234175E-3
9.910402E-3 -1.4781032E-3
7.7346046E-3 -2.4430142E-3
-7.3462573E-4 2.0107606E-3
-8.90205E-3 -8.346114E-5
2.65176E-4 9.772854E-3
-5.210345E-4 -8.7577235E-3
-6.108721E-4 -9.9152345E-3
-1.0432242E-2 1.6632474E-3
4.6868515E-3 3.3780545E-4
3.1986635E-4 1.1816549E-2
-7.271581E-3 -9.642419E-5
-2.8081662E-5 1.2833832E-2
-6.93863E-4 6.4572664E-3
-7.674716E-3 -2.4872073E-3
-1.1064364E-2 -3.9049334E-4
1.2925183E-2 -2.6816459E-5
-1.1204071E-2 -7.8681874E-4
9.954996E-3 2.0238364E-3
8.282518E-3 1.3835187E-3
9.971843E-3 9.692812E-4
1.2289762E-2 0
1.121696E-2 1.8521083E-4
-8.41106E-3 1.4440236E-3
1.0153778E-3 5.949792E-3
1.234545E-2 -3.331697E-4
-5.314971E-3 -4.4138096E-3
5.79755E-3 -1.8359779E-3
-1.2722042E-2 -1.7926737E-4
-1.268711E-2 7.59366E-5
-1.2325153E-2 -3.6079154E-4
1.242814E-2 3.8137997E-4
2.648548E-3 -6.50111E-3
1.4957747E-3 -4.2567984E-3
-8.166195E-3 -2.477579E-3
-1.2765952E-2 1.439303E-4
-1.1520572E-3 1.0761233E-2
-1.19984625E-2 8.498874E-4
-1.2921272E-2 4.1055282E-5
3.9715604E-3 6.368894E-3
3.0455259E-3 -3.336198E-3
-8.54439E-3 -1.9201249E-3
-1.0357268E-2 2.5922442E-5
1.2879473E-2 -7.8465376E-8
-1.0515475E-2 -1.4222448E-3
-8.757416E-3 1.843253E-3
6.696473E-3 1.4399599E-3
1.0428183E-2 1.2207185E-3
9.412195E-3 -1.8473315E-3
-1.22854905E-2 -2.7438448E-4
-1.0320815E-2 -1.3732555E-3
8.041416E-3 9.2636957E-4
-1.2891349E-2 5.3778058E-5
8.862361E-3 -2.9982459E-3
8.453149E-3 -2.7966078E-3
7.217758E-3 1.2534332E-3
-9.634373E-3 5.1758693E-6
1.2786378E-2 1.6541966E-5
-1.1834459E-2 -7.241797E-4
1.2607953E-2 2.1214031E-4
7.576363E-3 3.4047284E-3
9.552456E-3 -2.3060625E-3
-3.0254421E-3 2.3068588E-4
-1.0261818E-2 1.5755466E-3
-8.624521E-3 -1.5472929E-3
-6.5104393E-3 -1.7766339E-3
1.0016037E-2 -3.7164944E-5
7.997032E-3 1.0009357E-3
-1.9072414E-4 1.2429469E-2
-1.0838658E-2 3.2527032E-4
2.1159656E-3 -3.9192955E-3
-1.050783E-2 6.4449024E-4
-1.2356876E-2 2.874447E-4
-1.2891281E-2 9.6199365E-6
-7.5024036E-3 -1.9356387E-3
1.2673764E-2 -4.1578925E-5
-1.1469123E-2 1.1230985E-3
1.2639223E-2 1.6794112E-4
9.319781E-3 -1.7185874E-3
4.841319E-3 -5.652377E-3
1.26763685E-2 -1.3972001E-4
8.025863E-3 3.7195391E-3
-1.4290446E-3 5.546562E-4
-8.61994E-3 -1.3957479E-3
1.1879497E-2 -3.6094157E-4
5.8389935E-3 2.8927745E-3
1.2600022E-2 -2.5556865E-4
1.0517242E-2 -2.1452983E-3
-8.184973E-3 -2.8138547E-3
1.218685E-2 5.8746664E-4
-1.2401884E-2 5.367711E-4
-6.291163E-3 3.2561304E-5
1.291079E-2 -5.6936187E-5
-2.9065786E-3 8.548368E-3
-5.0600283E-3 -2.5439202E-3
-7.3861005E-4 1.013353E-2
-1.1459958E-2 -1.524749E-4
-1.2858478E-2 1.2045046E-5
1.1351646E-2 7.9945364E-4
1.1409541E-2 8.5212506E-4
8.573928E-3 1.3524016E-4
-1.1942232E-2 -3.7956267E-4
9.550084E-3 -9.410426E-4
-1.6355969E-3 -2.490106E-4
9.292841E-3 3.0091798E-3
8.722786E-3 1.189758E-3
1.8654865E-3 8.501653E-3
-9.128644E-3 -1.9555495E-3
8.588018E-3 2.715066E-3
-2.3646243E-3 3.6500704E-3
-1.2509292E-2 3.1557435E-4
1.0197718E-2 1.0486398E-3
5.225901E-3 5.6962497E-3
1.0613518E-2 -1.5341579E-3
-7.967895E-5 -1.2833269E-2
-1.1376053E-3 -9.56379E-3
1.0631353E-2 5.3043408E-5
-1.1050591E-2 1.1027626E-3
8.618743E-4 -1.0512343E-2
-5.050978E-4 -1.5819625E-3
8.852002E-3 -3.4393475E-3
2.233576E-4 -1.1358915E-2
1.2275133E-2 -6.285183E-4
9.733189E-3 -2.0648006E-3
-1.1355391E-3 2.3677782E-3
-1.0858704E-2 -1.158347E-3
-8.3603436E-4 1.1963255E-2
4.0318398E-4 -1.0754234E-2
4.308668E-4 -1.2178114E-2
-9.496521E-3 1.6752761E-3
4.282816E-3 2.3768505E-4
4.700243E-4 1.0780234E-2
-6.63828E-3 2.1578182E-5
1.6778012E-4 1.1713959E-2
-5.35981E-4 5.904053E-3
-7.042255E-3 -2.1544325E-3
-1.0104414E-2 -1.8966262E-4
1.179651E-2 -2.1926276E-4
-1.02379E-2 -5.4928614E-4
9.116502E-3 1.6971456E-3
7.580367E-3 1.1379281E-3
9.115985E-3 7.343912E-4
1.121696E-2 -1.8521083E-4
1.0240597E-2 0
-7.6550767E-3 1.4447292E-3
1.0164082E-3 5.4151188E-3
1.1262765E-2 -4.901366E-4
-4.917532E-3 -3.94842E-3
5.2637993E-3 -1.7630819E-3
-1.1614207E-2 2.8106868E-5
-1.1578478E-2 2.605075E-4
-1.1254698E-2 -1.4355262E-4
1.1349007E-2 1.6079182E-4
2.3193762E-3 -5.973527E-3
1.3010534E-3 -3.907755E-3
-7.4906857E-3 -2.138238E-3
-1.1649413E-2 3.2375386E-4
-8.89316E-4 9.839222E-3
-1.093828E-2 9.565198E-4
-1.1792725E-2 2.3219938E-4
3.720855E-3 5.7530855E-3
2.729397E-3 -3.0908706E-3
-7.827468E-3 -1.6237457E-3
-9.452768E-3 1.7974751E-4
1.1755192E-2 -1.941697E-4
-9.618989E-3 -1.1396218E-3
-7.965182E-3 1.8143286E-3
6.1336234E-3 1.2133443E-3
9.536279E-3 9.570028E-4
8.562743E-3 -1.8279187E-3
-1.12171965E-2 -6.528604E-5
-9.440582E-3 -1.0978425E-3
7.353423E-3 7.24318E-4
-1.1765223E-2 2.4336058E-4
8.04356E-3 -2.8700808E-3
7.6731085E-3 -2.6798772E-3
6.6065923E-3 1.0352442E-3
-8.793287E-3 1.4991725E-4
1.1670475E-2 -1.7759764E-4
-1.0812315E-2 -4.8261494E-4
1.1510572E-2 3.6155059E-6
6.9663147E-3 2.9933432E-3
8.683846E-3 -2.2487196E-3
-2.7578678E-3 2.561433E-4
-9.342295E-3 1.5926622E-3
-7.894984E-3 -1.2822513E-3
-5.9689023E-3 -1.5234328E-3
9.141155E-3 -1.8486565E-4
7.3140375E-3 7.930433E-4
1.3240728E-5 1.1347345E-2
-9.887624E-3 4.6021896E-4
1.872193E-3 -3.6090594E-3
-9.580864E-3 7.4658793E-4
-1.1273883E-2 4.485756E-4
-1.1765826E-2 2.030562E-4
-6.8766717E-3 -1.6536086E-3
1.1566814E-2 -2.2894735E-4
-1.0451031E-2 1.1979046E-3
1.1538446E-2 -3.719625E-5
8.4803365E-3 -1.7090199E-3
4.333525E-3 -5.231928E-3
1.1567713E-2 -3.185605E-4
7.381322E-3 3.2738994E-3
-1.2959411E-3 5.277752E-4
-7.888519E-3 -1.1440045E-3
1.0837069E-2 -5.0846254E-4
5.37289E-3 2.5522618E-3
1.1496286E-2 -4.2314632E-4
9.566837E-3 -2.1165288E-3
-7.5128935E-3 -2.4448766E-3
1.1131885E-2 3.5252544E-4
-1.1311205E-2 6.768159E-4
-5.741502E-3 1.2452883E-4
1.1782919E-2 -2.465366E-4
-2.5240297E-3 7.845964E-3
-4.656664E-3 -2.2455992E-3
-5.214195E-4 9.260082E-3
-1.0461888E-2 3.3540087E-5
-1.1735851E-2 2.0477513E-4
1.0372782E-2 5.5859383E-4
1.0426416E-2 6.057954E-4
7.827528E-3 -5.777166E-6
-1.09054865E-2 -1.6645597E-4
8.702253E-3 -1.0028196E-3
-1.4965745E-3 -2.026249E-4
8.526997E-3 2.606455E-3
7.979283E-3 9.5444557E-4
1.8307668E-3 7.7314093E-3
-8.361255E-3 -1.647273E-3
7.8792665E-3 2.3486374E-3
-2.1032032E-3 3.3670827E-3
-1.1412571E-2 4.7654667E-4
9.323338E-3 8.034184E-4
4.8555643E-3 5.120254E-3
9.663918E-3 -1.560187E-3
-2.661253E-4 -1.1711822E-2
-1.1824305E-3 -8.7118E-3
9.704116E-3 -1.1180544E-4
-1.0069341E-2 1.1730358E-3
6.2821456E-4 -9.607685E-3
-4.8484738E-4 -1.4362574E-3
8.027458E-3 -3.2725218E-3
3.2677373E-5 -1.0370734E-2
1.1194136E-2 -7.5864437E-4
8.85244E-3 -2.0312418E-3
-1.000732E-3 2.1782022E-3
-9.92828E-3 -8.935877E-4
-5.827648E-4 1.0931553E-2
2.0591877E-4 -9.821548E-3
2.0972699E-4 -1.11215515E-2
7.3352098E-3 8.7449465E-5
-3.1679694E-3 -7.818887E-4
1.1695069E-3 -8.124779E-3
4.9653086E-3 9.2038914E-4
1.5271696E-3 -8.780119E-3
1.2335934E-3 -4.3377974E-3
4.9603E-3 2.6039984E-3
7.5265197E-3 1.5672935E-3
-8.849091E-3 -1.5003312E-3
7.5755683E-3 1.8549523E-3
-6.575359E-3 -2.5547978E-3
-5.505958E-3 -1.9200546E-3
-6.7107975E-3 -1.8350442E-3
-8.41106E-3 -1.4440236E-3
-7.6550767E-3 -1.4447292E-3
5.9261634E-3 0
4.1692356E-6 -4.1913167E-3
-8.488319E-3 -1.2225467E-3
3.118929E-3 3.6452913E-3
-4.183542E-3 5.75334E-4
8.685848E-3 1.6175057E-3
8.691925E-3 1.4387408E-3
8.392889E-3 1.6951062E-3
-8.460955E-3 -1.7212975E-3
-2.576523E-3 4.1381316E-3
-1.5238674E-3 2.7375838E-3
5.2977973E-3 2.6551567E-3
8.753874E-3 1.4014697E-3
2.0528873E-3 -7.2295764E-3
8.311556E-3 8.2813745E-4
8.848086E-3 1.4901267E-3
-1.969786E-3 -4.825494E-3
-2.4763416E-3 1.925436E-3
5.622133E-3 2.318075E-3
7.0915157E-3 1.1992177E-3
-8.814665E-3 -1.5132597E-3
7.0296344E-3 2.2089265E-3
6.210116E-3 -2.3253499E-4
-4.413844E-3 -1.7723251E-3
-6.9935713E-3 -2.0607463E-3
-6.6587226E-3 1.583909E-4
8.375897E-3 1.6313088E-3
6.902166E-3 2.152526E-3
-5.3946646E-3 -1.5788547E-3
8.829103E-3 1.4779036E-3
-6.4176503E-3 1.0106759E-3
-6.1138947E-3 9.207573E-4
-4.7925264E-3 -1.7059171E-3
6.5943315E-3 1.1284783E-3
-8.748999E-3 -1.5136959E-3
8.014363E-3 1.8861518E-3
-8.6039025E-3 -1.6265983E-3
-4.785181E-3 -3.2203896E-3
-6.8086176E-3 4.5586374E-4
2.0977047E-3 1.9760316E-4
7.208267E-3 1.2744688E-4
5.7207807E-3 2.0723252E-3
4.246965E-3 1.9808847E-3
-6.8592997E-3 -1.1514298E-3
-5.355526E-3 -1.6246722E-3
1.5909697E-3 -8.484265E-3
7.4561485E-3 1.050908E-3
-1.9086675E-3 2.433727E-3
7.267239E-3 7.9356326E-4
8.490766E-3 1.2551835E-3
8.823868E-3 1.5081172E-3
4.9071787E-3 2.206261E-3
-8.678754E-3 -1.4606867E-3
7.9813795E-3 5.789562E-4
-8.6304955E-3 -1.6000229E-3
-6.580349E-3 8.113706E-5
-3.977521E-3 3.2996165E-3
-8.692068E-3 -1.3938253E-3
-5.0558276E-3 -3.4886603E-3
1.043203E-3 -2.1169437E-4
5.7354514E-3 1.9680702E-3
-8.172686E-3 -1.1487913E-3
-3.6562867E-3 -2.665873E-3
-8.65343E-3 -1.3055687E-3
-7.4500237E-3 2.3247706E-4
5.2711377E-3 2.8875088E-3
-8.271601E-3 -1.833991E-3
8.550866E-3 1.0898341E-3
4.3094708E-3 7.16915E-4
-8.842778E-3 -1.4780259E-3
2.9936666E-3 -5.5089486E-3
3.1641554E-3 2.3355915E-3
1.696172E-3 -6.8485592E-3
7.825229E-3 1.4508765E-3
8.801703E-3 1.5026035E-3
-7.6750834E-3 -1.8809391E-3
-7.708517E-3 -1.9237897E-3
-5.8520683E-3 -1.0999781E-3
8.128614E-3 1.6629607E-3
-6.646607E-3 -4.7807128E-4
1.0901372E-3 3.626013E-4
-6.0064076E-3 -3.1513607E-3
-5.8300425E-3 -1.8391757E-3
-2.7780302E-4 -6.037685E-3
6.017831E-3 2.4109678E-3
-5.5585867E-3 -2.8672554E-3
2.0472151E-3 -2.2202535E-3
8.598384E-3 1.2538402E-3
-6.856061E-3 -1.9158969E-3
-2.9072855E-3 -4.512522E-3
-7.4441056E-3 -1.970969E-4
-1.4533529E-3 8.792397E-3
-3.45155E-4 6.6790828E-3
-7.2698193E-3 -1.2854664E-3
7.692549E-3 5.436972E-4
-1.8250433E-3 7.0933336E-3
1.5980918E-4 1.1420364E-3
-6.462388E-3 1.3137815E-3
-1.4875158E-3 7.747748E-3
-8.474897E-3 -1.0121494E-3
-6.903963E-3 2.6950947E-4
1.0553675E-3 -1.4870735E-3
7.2955466E-3 2.0686449E-3
1.977838E-3 -8.089367E-3
-1.5395391E-3 7.3127784E-3
-1.7257887E-3 8.284022E-3
-5.6688594E-5 5.187935E-3
5.507671E-4 -2.2411167E-3
5.7471246E-3 8.214252E-4
-6.474579E-4 3.5123937E-3
6.2108696E-3 1.0739233E-3
3.0688029E-3 8.694151E-4
-1.8382048E-3 3.510036E-3
-1.1031834E-3 5.324282E-3
1.0548935E-3 -6.259632E-3
-1.3065971E-3 5.359174E-3
1.8022713E-3 -4.652262E-3
1.3540973E-3 -3.895475E-3
1.2931256E-3 -4.747546E-3
1.0153778E-3 -5.949792E-3
1.0164082E-3 -5.4151188E-3
4.1692356E-6 4.1913167E-3
2.9643388E-3 0
8.5868244E-4 -6.004278E-3
-2.5759614E-3 2.2084469E-3
-4.0985193E-4 -2.958432E-3
-1.1378805E-3 6.1442587E-3
-1.0114436E-3 6.148432E-3
-1.1929702E-3 5.9371167E-3
1.2114461E-3 -5.985275E-3
-2.928533E-3 -1.819351E-3
-1.937246E-3 -1.075839E-3
-1.8741497E-3 3.748769E-3
-9.850397E-4 6.1922194E-3
5.1146084E-3 1.4468315E-3
-5.7985797E-4 5.8789835E-3
-1.0476769E-3 6.258914E-3
3.4114758E-3 -1.3965386E-3
-1.3635191E-3 -1.7500538E-3
-1.635518E-3 3.977921E-3
-8.431654E-4 5.016363E-3
1.0640613E-3 -6.2352926E-3
-1.5573319E-3 4.973308E-3
1.6883067E-4 4.391981E-3
1.250383E-3 -3.1229667E-3
1.4525558E-3 -4.9476977E-3
-1.16707495E-4 -4.709313E-3
-1.1478609E-3 5.925054E-3
-1.5175318E-3 4.883115E-3
1.1128597E-3 -3.816522E-3
-1.0390455E-3 6.245479E-3
-7.193221E-4 -4.5382134E-3
-6.555128E-4 -4.323444E-3
1.203149E-3 -3.3907448E-3
-7.934842E-4 4.6646767E-3
1.0644164E-3 -6.18885E-3
-1.3283545E-3 5.6695365E-3
1.1443688E-3 -6.086309E-3
2.2742748E-3 -3.3866158E-3
-3.2720267E-4 -4.815118E-3
-1.3828039E-4 1.4837541E-3
-8.506643E-5 5.0981827E-3
-1.4616407E-3 4.0475167E-3
-1.3980056E-3 3.0050871E-3
8.095304E-4 -4.8520933E-3
1.1452918E-3 -3.7888736E-3
6.00167E-3 1.1192546E-3
-7.380157E-4 5.2741487E-3
-1.7226118E-3 -1.3482049E-3
-5.5614003E-4 5.1403595E-3
-8.817628E-4 6.006032E-3
-1.0604173E-3 6.241798E-3
-1.55694E-3 3.4721857E-3
1.0269742E-3 -6.139132E-3
-4.038554E-4 5.645289E-3
1.1255543E-3 -6.1050993E-3
-6.201408E-5 -4.653937E-3
-2.3364732E-3 -2.810806E-3
9.796768E-4 -6.1485018E-3
2.4638202E-3 -3.5782205E-3
1.504561E-4 7.3766307E-4
-1.3878954E-3 4.0578195E-3
8.0674037E-4 -5.7809935E-3
1.8828835E-3 -2.5878076E-3
9.172839E-4 -6.1211125E-3
-1.6966207E-4 -5.2689137E-3
-2.0385007E-3 3.7300775E-3
1.291283E-3 -5.851433E-3
-7.647764E-4 6.0484214E-3
-5.040109E-4 3.0484053E-3
1.0391225E-3 -6.2551517E-3
3.8983454E-3 2.1134142E-3
-1.6496361E-3 2.2395125E-3
4.84488E-3 1.1948104E-3
-1.0206364E-3 5.5354643E-3
-1.0565337E-3 6.2261173E-3
1.3249066E-3 -5.4295748E-3
1.3551894E-3 -5.4532513E-3
7.738495E-4 -4.1396865E-3
-1.1704207E-3 5.7501844E-3
3.334429E-4 -4.701192E-3
-2.5568515E-4 7.712616E-4
2.2245946E-3 -4.2502875E-3
1.2966673E-3 -4.124629E-3
4.269996E-3 -2.0072563E-4
-1.7009387E-3 4.257846E-3
2.0239742E-3 -3.9333636E-3
1.5717288E-3 1.446344E-3
-8.807375E-4 6.0821446E-3
1.350207E-3 -4.85034E-3
3.1894646E-3 -2.0593707E-3
1.3416096E-4 -5.26503E-3
-6.219501E-3 -1.0217074E-3
-4.7240667E-3 -2.3941434E-4
9.040399E-4 -5.142531E-3
-3.7912154E-4 5.4409876E-3
-5.0180894E-3 -1.2857834E-3
-8.0760004E-4 1.13829505E-4
-9.337266E-4 -4.5696413E-3
-5.480691E-3 -1.0466044E-3
7.0988684E-4 -5.994638E-3
-1.9546926E-4 -4.882682E-3
1.0524847E-3 7.453692E-4
-1.4579296E-3 5.161278E-3
5.7226485E-3 1.3931477E-3
-5.1730922E-3 -1.0837043E-3
-5.860142E-3 -1.2147473E-3
-1.0524603E-2 1.3879709E-3
4.698931E-3 4.6639456E-4
9.745156E-7 1.1878764E-2
-7.301915E-3 -2.9399028E-4
-3.7612807E-4 1.2891223E-2
-8.72061E-4 6.467715E-3
-7.6420647E-3 -2.7065354E-3
-1.1103911E-2 -6.9221266E-4
1.2984477E-2 3.2345747E-4
-1.1233509E-2 -1.0941213E-3
9.945239E-3 2.302882E-3
8.28254E-3 1.6143234E-3
9.990751E-3 1.2440048E-3
1.234545E-2 3.331697E-4
1.1262765E-2 4.901366E-4
-8.488319E-3 1.2225467E-3
8.5868244E-4 6.004278E-3
1.2410421E-2 0
-5.219398E-3 -4.577896E-3
5.8735926E-3 -1.6871279E-3
-1.2774829E-2 -5.249688E-4
-1.2746656E-2 -2.6766086E-4
-1.237122E-2 -6.965555E-4
1.2474117E-2 7.2002923E-4
2.8367916E-3 -6.4587663E-3
1.617952E-3 -4.2355377E-3
-8.136031E-3 -2.7101876E-3
-1.2827699E-2 -2.0149625E-4
-1.4490096E-3 1.0778762E-2
-1.207587E-2 5.2846555E-4
-1.2980933E-2 -3.0904872E-4
3.816899E-3 6.50542E-3
3.1497686E-3 -3.268752E-3
-8.531054E-3 -2.1604602E-3
-1.0404902E-2 -2.547405E-4
1.2937835E-2 3.4907783E-4
-1.0524567E-2 -1.7137591E-3
-8.847067E-3 1.6141959E-3
6.6877794E-3 1.6280231E-3
1.0442342E-2 1.508953E-3
9.504923E-3 -1.6005416E-3
-1.233372E-2 -6.086812E-4
-1.0330352E-2 -1.6592704E-3
8.052741E-3 1.1485665E-3
-1.295122E-2 -2.954567E-4
8.9838E-3 -2.7715773E-3
8.567267E-3 -2.5801188E-3
7.216483E-3 1.4547831E-3
-9.678168E-3 -2.5598417E-4
1.2843868E-2 3.632496E-4
-1.1868452E-2 -1.0482877E-3
1.2659331E-2 5.548974E-4
7.5183935E-3 3.6255477E-3
9.658257E-3 -2.0575493E-3
-3.0454048E-3 1.4971285E-4
-1.0351027E-2 1.3044926E-3
-8.621654E-3 -1.7881106E-3
-6.4917756E-3 -1.961179E-3
1.0062429E-2 2.341972E-4
8.006134E-3 1.2222666E-3
-5.2854564E-4 1.2480618E-2
-1.0896588E-2 3.2913176E-5
2.2318035E-3 -3.879692E-3
-1.0572915E-2 3.6254828E-4
-1.242066E-2 -4.6242127E-5
-1.2949956E-2 -3.3981283E-4
-7.483924E-3 -2.1477963E-3
1.2732318E-2 3.018124E-4
-1.15515385E-2 8.172649E-4
1.269194E-2 5.1134545E-4
9.4086025E-3 -1.4737193E-3
5.016489E-3 -5.5467435E-3
1.2737595E-2 2.032977E-4
7.961396E-3 3.953971E-3
-1.4505563E-3 5.184288E-4
-8.62116E-3 -1.6357552E-3
1.1943111E-2 -4.0529605E-5
5.7870294E-3 3.0641747E-3
1.2664044E-2 8.485401E-5
1.0623056E-2 -1.8699015E-3
-8.145779E-3 -3.0484959E-3
1.2226146E-2 9.205083E-4
-1.2472631E-2 2.029936E-4
-6.3205524E-3 -1.3784172E-4
1.2970835E-2 2.9281125E-4
-3.151491E-3 8.508307E-3
-5.0139916E-3 -2.6926224E-3
-1.0166722E-3 1.01594245E-2
-1.15077505E-2 -4.6384017E-4
-1.291707E-2 -3.36488E-4
1.138141E-2 1.110814E-3
1.1438138E-2 1.1652934E-3
8.609111E-3 3.6828843E-4
-1.1986055E-2 -7.05031E-4
9.618868E-3 -6.8640825E-4
-1.6362576E-3 -2.944792E-4
9.2533715E-3 3.2747397E-3
8.730057E-3 1.4316195E-3
1.6434635E-3 8.590748E-3
-9.116994E-3 -2.2118837E-3
8.553328E-3 2.9601862E-3
-2.4742908E-3 3.6025057E-3
-1.257453E-2 -2.2116667E-5
1.0215498E-2 1.3298471E-3
5.095158E-3 5.863732E-3
1.07032E-2 -1.2533816E-3
2.6786415E-4 -1.2893579E-2
-8.834901E-4 -9.637965E-3
1.0678087E-2 3.4149474E-4
-1.1130559E-2 8.081832E-4
1.1507648E-3 -1.0536612E-2
-4.6450025E-4 -1.6028237E-3
8.985351E-3 -3.2149581E-3
5.3230464E-4 -1.1404329E-2
1.2347792E-2 -2.9859328E-4
9.833269E-3 -1.8102943E-3
-1.2048739E-3 2.347723E-3
-1.0876505E-2 -1.4579701E-3
-1.1641417E-3 1.1994799E-2
6.9655344E-4 -1.0792034E-2
7.629624E-4 -1.2221615E-2
3.914299E-3 -4.465997E-3
-2.1482506E-3 1.5371691E-3
-4.382191E-3 -4.9954415E-3
3.179381E-3 -2.569853E-3
-4.597065E-3 -5.56035E-3
-2.0190205E-3 -3.0417808E-3
4.212364E-3 -1.6806916E-3
4.9252645E-3 -3.8048362E-3
-5.5801417E-3 4.6536163E-3
5.1280227E-3 -3.6836124E-3
-5.032102E-3 2.7000383E-3
-4.078836E-3 2.3762945E-3
-4.6606497E-3 3.1621535E-3
-5.314971E-3 4.4138096E-3
-4.917532E-3 3.94842E-3
3.118929E-3 -3.6452913E-3
-2.5759614E-3 -2.2084469E-3
-5.219398E-3 4.577896E-3
3.883772E-3 0
-1.8478921E-3 2.8761704E-3
5.566303E-3 -4.491533E-3
5.4595396E-3 -4.5893556E-3
5.4598525E-3 -4.270488E-3
-5.511787E-3 4.298572E-3
1.1894212E-3 3.7627576E-3
8.819293E-4 2.378144E-3
4.4214567E-3 -1.861368E-3
5.4692174E-3 -4.6470766E-3
-3.3666138E-3 -5.067682E-3
4.8837587E-3 -4.676743E-3
5.5733356E-3 -4.6583684E-3
-4.0049446E-3 -1.3279975E-3
-1.1892321E-4 2.5365965E-3
4.3848087E-3 -2.2382783E-3
4.4699125E-3 -3.7309744E-3
-5.569976E-3 4.6256357E-3
5.058435E-3 -3.1615028E-3
3.1253363E-3 -3.9423383E-3
-3.4131878E-3 1.782265E-3
-4.9483064E-3 3.217307E-3
-3.4070446E-3 4.1792635E-3
5.411667E-3 -4.293612E-3
4.9566557E-3 -3.112778E-3
-3.810384E-3 2.4874082E-3
5.5558262E-3 -4.6531246E-3
-2.7559123E-3 4.4795307E-3
-2.651357E-3 4.2453613E-3
-3.5716384E-3 2.0501493E-3
4.1647316E-3 -3.4623775E-3
-5.535684E-3 4.5850133E-3
5.378151E-3 -3.937103E-3
-5.528768E-3 4.436342E-3
-4.4993525E-3 1.2485674E-3
-3.3029527E-3 4.4280253E-3
1.2255674E-3 -1.1863383E-3
3.8720928E-3 -4.366862E-3
4.2855614E-3 -2.428296E-3
3.4536484E-3 -1.5698498E-3
-4.318303E-3 3.6132853E-3
-3.8179697E-3 2.4392204E-3
-4.381502E-3 -5.443888E-3
4.5705903E-3 -4.0333224E-3
4.925019E-4 2.4549223E-3
4.3128706E-3 -4.052561E-3
5.240761E-3 -4.5622247E-3
5.571656E-3 -4.6340027E-3
3.9397506E-3 -1.8573443E-3
-5.4661073E-3 4.5697032E-3
4.5567118E-3 -4.604789E-3
-5.526418E-3 4.466687E-3
-3.4133168E-3 4.090395E-3
-6.3707535E-5 4.183228E-3
-5.4319873E-3 4.6130824E-3
-4.8068115E-3 1.2738564E-3
4.1881876E-4 -7.5310754E-4
4.229154E-3 -2.4921892E-3
-5.0079124E-3 4.422562E-3
-3.5641245E-3 8.460045E-4
-5.3573633E-3 4.6357643E-3
-3.7779333E-3 4.704998E-3
4.55035E-3 -1.7226826E-3
-5.4814504E-3 4.122787E-3
5.170682E-3 -4.686216E-3
2.7090542E-3 -2.2735232E-3
-5.5630994E-3 4.661472E-3
-1.8130937E-3 -4.7408086E-3
3.1019545E-3 -7.171122E-4
-3.3199813E-3 -4.6477304E-3
5.0108647E-3 -4.0498483E-3
5.556599E-3 -4.623271E-3
-5.1963823E-3 3.7311492E-3
-5.240337E-3 3.7291627E-3
-3.7565497E-3 3.0207979E-3
5.300992E-3 -4.1248463E-3
-3.7921676E-3 3.8368416E-3
7.967799E-4 -4.7972688E-4
-5.0996207E-3 2.0360956E-3
-4.199651E-3 2.6182106E-3
-3.8600974E-3 -3.006741E-3
4.650204E-3 -2.4327901E-3
-4.6891756E-3 1.9101574E-3
-2.8827298E-4 -2.427795E-3
5.296574E-3 -4.62913E-3
-4.7868355E-3 3.208955E-3
-4.3058335E-3 -5.866076E-4
-4.0390575E-3 4.4752737E-3
4.6434663E-3 5.521406E-3
3.926771E-3 3.7275003E-3
-4.6168067E-3 3.7952603E-3
4.383013E-3 -4.445681E-3
3.402722E-3 4.8558265E-3
7.865947E-4 5.027501E-4
-2.5930125E-3 4.666574E-3
3.982905E-3 4.9926243E-3
-5.082915E-3 4.6803723E-3
-3.4677628E-3 4.388596E-3
-3.5928813E-4 -1.4318199E-3
5.1120943E-3 -3.3989006E-3
-3.934985E-3 -5.474024E-3
3.6879668E-3 4.795701E-3
4.187374E-3 5.42143E-3
-5.1697604E-3 -7.73864E-4
2.1605017E-3 8.5952826E-4
-1.6143906E-3 5.622103E-3
-3.4158772E-3 -1.1317943E-3
-1.9305036E-3 6.0500135E-3
-1.291978E-3 2.9424822E-3
-3.2488904E-3 -2.3198428E-3
-5.161146E-3 -1.8371248E-3
6.101309E-3 1.9182533E-3
-5.1678447E-3 -2.0449578E-3
4.393809E-3 2.441906E-3
3.7004948E-3 1.8899908E-3
4.559297E-3 1.9469487E-3
5.79755E-3 1.8359779E-3
5.2637993E-3 1.7630819E-3
-4.183542E-3 -5.75334E-4
-4.0985193E-4 2.958432E-3
5.8735926E-3 1.6871279E-3
-1.8478921E-3 -2.8761704E-3
3.009204E-3 0
-5.9746923E-3 -1.9851234E-3
-5.996338E-3 -1.8595152E-3
-5.760346E-3 -2.0114635E-3
5.805854E-3 2.0365617E-3
2.2206276E-3 -2.6711526E-3
1.3415407E-3 -1.7846395E-3
-3.482178E-3 -2.3887232E-3
-6.043689E-3 -1.8392183E-3
-2.1510988E-3 4.9043777E-3
-5.7870983E-3 -1.3915357E-3
-6.10159E-3 -1.9109522E-3
9.2208246E-4 3.597765E-3
1.9350882E-3 -1.1188383E-3
-3.7438662E-3 -2.18225E-3
-4.8897914E-3 -1.535052E-3
6.075751E-3 1.9240379E-3
-4.748081E-3 -2.2418424E-3
-4.406573E-3 -4.3874467E-4
2.9438653E-3 1.6796757E-3
4.7370084E-3 2.1337345E-3
4.7160657E-3 5.346387E-4
-5.7545444E-3 -1.9647768E-3
-4.663571E-3 -2.1896518E-3
3.6550523E-3 1.6383178E-3
-6.0893763E-3 -1.9004801E-3
4.6286248E-3 -9.043176E-5
4.405461E-3 -5.6443645E-5
3.2176403E-3 1.669559E-3
-4.545674E-3 -1.4368453E-3
6.0293516E-3 1.917971E-3
-5.474581E-3 -2.1095825E-3
5.9159608E-3 1.9835867E-3
3.065425E-3 2.7379794E-3
4.850763E-3 3.391916E-4
-1.4616789E-3 -3.4314994E-4
-5.076263E-3 -7.897758E-4
-3.8373645E-3 -2.0183413E-3
-2.80581E-3 -1.8107058E-3
4.7305E-3 1.478772E-3
3.622975E-3 1.6668629E-3
-1.9468206E-3 5.8349627E-3
-5.1616007E-3 -1.4657534E-3
1.5836885E-3 -1.5327757E-3
-5.0532254E-3 -1.2657425E-3
-5.872152E-3 -1.710405E-3
-6.0827467E-3 -1.921301E-3
-3.2500036E-3 -2.033905E-3
5.98491E-3 1.8737293E-3
-5.5782036E-3 -1.183573E-3
5.937315E-3 1.9674082E-3
4.653238E-3 5.815667E-4
3.1282483E-3 -1.9431935E-3
6.0007996E-3 1.8278217E-3
3.2304411E-3 2.953639E-3
-7.5699546E-4 4.816641E-5
-3.8578426E-3 -1.9461674E-3
5.657934E-3 1.6044182E-3
2.3223225E-3 2.2369244E-3
5.9820917E-3 1.7617662E-3
5.281873E-3 5.5916037E-4
-3.4408004E-3 -2.5501624E-3
5.661241E-3 2.097734E-3
-5.9306314E-3 -1.5995123E-3
-2.9726464E-3 -9.244817E-4
6.099018E-3 1.9018943E-3
-2.6481915E-3 3.5983755E-3
-2.00697E-3 -1.955986E-3
-1.8622869E-3 4.670032E-3
-5.383321E-3 -1.7839407E-3
-6.067635E-3 -1.9152567E-3
5.235574E-3 2.0729643E-3
5.255016E-3 2.1064603E-3
4.0244455E-3 1.344664E-3
-5.5769035E-3 -1.9631141E-3
4.6457225E-3 9.827693E-4
-7.343735E-4 -3.61811E-4
3.934244E-3 2.8078102E-3
3.937132E-3 1.8643582E-3
-3.9004764E-4 4.2892406E-3
-4.014189E-3 -2.286243E-3
3.6456902E-3 2.5637716E-3
-1.6607706E-3 1.3686245E-3
-5.948255E-3 -1.7199048E-3
4.6539954E-3 2.0181288E-3
1.6142896E-3 3.4678401E-3
5.2359905E-3 8.6184137E-4
1.8795849E-3 -6.0658464E-3
8.920906E-4 -4.6815528E-3
5.0072907E-3 1.6132488E-3
-5.3777285E-3 -1.1306416E-3
1.9770267E-3 -4.8303176E-3
-1.9432632E-6 -8.217291E-4
4.6896343E-3 -3.000637E-4
1.8022837E-3 -5.3250664E-3
5.884544E-3 1.537296E-3
4.899979E-3 4.8000383E-4
-8.894014E-4 9.4733224E-4
-4.9494193E-3 -2.1686275E-3
-2.1815898E-3 5.518628E-3
1.7967812E-3 -5.012951E-3
2.0225549E-3 -5.6805136E-3
1.0774924E-2 -1.8739228E-3
-4.856634E-3 -2.8132155E-4
-5.0348224E-4 -1.2227519E-2
7.528757E-3 -6.2532436E-6
-1.5813457E-4 -1.3285658E-2
6.2407844E-4 -6.6945157E-3
7.980946E-3 2.4627433E-3
1.1459237E-2 2.4283571E-4
-1.3379424E-2 2.1629612E-4
1.1609641E-2 6.5106346E-4
-1.0334674E-2 -1.9498118E-3
-8.594028E-3 -1.311368E-3
-1.0336732E-2 -8.579177E-4
-1.2722042E-2 1.7926737E-4
-1.1614207E-2 -2.8106868E-5
8.685848E-3 -1.6175057E-3
-1.1378805E-3 -6.1442587E-3
-1.2774829E-2 5.249688E-4
5.566303E-3 4.491533E-3
-5.9746923E-3 1.9851234E-3
1.3172142E-2 0
1.3132258E-2 -2.6367133E-4
1.276394E-2 1.9369808E-4
-1.2870851E-2 -2.1350836E-4
-2.6468784E-3 6.768413E-3
-1.4862943E-3 4.4283457E-3
8.4895715E-3 2.4456072E-3
1.3212882E-2 -3.3520695E-4
1.0356085E-3 -1.1156553E-2
1.2408099E-2 -1.0547999E-3
1.3375166E-2 -2.309785E-4
-4.204158E-3 -6.534981E-3
-3.103985E-3 3.4979696E-3
8.87294E-3 1.8630287E-3
1.0721196E-2 -1.7791313E-4
-1.33324955E-2 1.879506E-4
1.0906093E-2 1.318884E-3
9.038561E-3 -2.0358297E-3
-6.9530196E-3 -1.3929295E-3
-1.0812791E-2 -1.111543E-3
-9.7163115E-3 2.049603E-3
1.2721623E-2 1.0482975E-4
1.0703871E-2 1.2710111E-3
-8.337778E-3 -8.416558E-4
1.3344007E-2 -2.4371265E-4
-9.130352E-3 3.2329794E-3
-8.709687E-3 3.0182796E-3
-7.4899183E-3 -1.192238E-3
9.973177E-3 -1.4589194E-4
-1.3236368E-2 1.6938805E-4
1.2261288E-2 5.7702546E-4
-1.3054519E-2 -3.569321E-5
-7.892518E-3 -3.4139717E-3
-9.854817E-3 2.5265154E-3
3.1284941E-3 -2.8293143E-4
1.0599785E-2 -1.7806515E-3
8.9504495E-3 1.4759139E-3
6.765353E-3 1.7441591E-3
-1.0367799E-2 1.8457333E-4
-8.292921E-3 -9.1949187E-4
1.6127278E-5 -1.2869445E-2
1.1215152E-2 -4.9481203E-4
-2.1332228E-3 4.0880176E-3
1.0868031E-2 -8.204348E-4
1.2787323E-2 -4.7780172E-4
1.3344578E-2 -1.9800027E-4
7.794528E-3 1.8942876E-3
-1.3118943E-2 2.2791022E-4
1.1856155E-2 -1.3298995E-3
-1.3086244E-2 1.05168E-5
-9.622527E-3 1.9149818E-3
-4.9291574E-3 5.9218127E-3
-1.3120208E-2 3.295412E-4
-8.362422E-3 -3.733299E-3
1.4712191E-3 -5.950109E-4
8.943497E-3 1.319105E-3
-1.2292082E-2 5.4692075E-4
-6.0865707E-3 -2.9093532E-3
-1.3039487E-2 4.4835117E-4
-1.0855882E-2 2.3741692E-3
8.513916E-3 2.7934373E-3
-1.262408E-2 -4.303639E-4
1.2830278E-2 -7.365541E-4
6.5119737E-3 -1.2547386E-4
-1.3364084E-2 2.4726515E-4
2.8841214E-3 -8.8914465E-3
5.2751172E-3 2.5595906E-3
6.167749E-4 -1.0500741E-2
1.1865274E-2 -9.325184E-6
1.3310587E-2 -2.0003183E-4
-1.176259E-2 -6.619896E-4
-1.1823289E-2 -7.156697E-4
-8.8774795E-3 -1.4931596E-5
1.2367825E-2 2.1871513E-4
-9.872273E-3 1.1134474E-3
1.6967596E-3 2.339113E-4
-9.663602E-3 -2.9794727E-3
-9.046956E-3 -1.1043693E-3
-2.0551144E-3 -8.773479E-3
9.47826E-3 1.8911767E-3
-8.929697E-3 -2.685295E-3
2.3945551E-3 -3.8129503E-3
1.2944692E-2 -5.091444E-4
-1.0571708E-2 -9.367734E-4
-5.4928064E-3 -5.8203805E-3
-1.096446E-2 1.7429368E-3
2.6967697E-4 1.3283505E-2
1.3171239E-3 9.883592E-3
-1.1006073E-2 1.0016777E-4
1.1423199E-2 -1.3027437E-3
-7.388495E-4 1.0894677E-2
5.459398E-4 1.6302388E-3
-9.1131935E-3 3.689445E-3
-6.5524284E-5 1.1761712E-2
-1.269773E-2 8.296803E-4
-1.0045426E-2 2.2794034E-3
1.1409423E-3 -2.4676262E-3
1.1257546E-2 1.0406973E-3
6.9093646E-4 -1.2396245E-2
-2.604961E-4 1.1138385E-2
-2.683833E-4 1.2612752E-2
1.077981E-2 -1.6525635E-3
-4.8362976E-3 -3.776866E-4
-2.571953E-4 -1.2200574E-2
7.506086E-3 1.4447184E-4
1.0828792E-4 -1.3248595E-2
7.561953E-4 -6.661753E-3
7.907483E-3 2.6150437E-3
1.1419679E-2 4.7148383E-4
-1.3343241E-2 -5.217907E-5
1.1561455E-2 8.8148616E-4
-1.0264351E-2 -2.1507808E-3
-8.541756E-3 -1.479427E-3
-1.028826E-2 -1.0622338E-3
-1.268711E-2 -7.59366E-5
-1.1578478E-2 -2.605075E-4
8.691925E-3 -1.4387408E-3
-1.0114436E-3 -6.148432E-3
-1.2746656E-2 2.6766086E-4
5.4595396E-3 4.5893556E-3
-5.996338E-3 1.8595152E-3
1.3132258E-2 2.6367133E-4
1.3097773E-2 0
1.2721415E-2 4.4861177E-4
-1.2827607E-2 -4.7050242E-4
-2.7743494E-3 6.694936E-3
-1.5704376E-3 4.385186E-3
8.414912E-3 2.608141E-3
1.3179585E-2 -6.970531E-5
1.2557973E-3 -1.1102043E-2
1.2391643E-2 -8.032285E-4
1.333929E-2 3.7456444E-5
-4.060615E-3 -6.59935E-3
-3.1646066E-3 3.4252447E-3
8.80878E-3 2.0350004E-3
1.0692296E-2 3.7235277E-5
-1.3295888E-2 -7.949966E-5
1.084667E-2 1.5332021E-3
9.051947E-3 -1.8487375E-3
-6.9040833E-3 -1.5278929E-3
-1.07578E-2 -1.3246208E-3
-9.7279195E-3 1.8489021E-3
1.2681005E-2 3.5916572E-4
1.0646018E-2 1.481426E-3
-8.295685E-3 -1.0060074E-3
1.3308479E-2 2.4136845E-5
-9.167422E-3 3.0404248E-3
-8.743734E-3 2.8347955E-3
-7.443375E-3 -1.3385564E-3
9.945899E-3 5.4186647E-5
-1.31996805E-2 -9.608187E-5
1.2212612E-2 8.2071696E-4
-1.30142765E-2 -2.9690162E-4
-7.8002824E-3 -3.5616215E-3
-9.875551E-3 2.321598E-3
3.124685E-3 -2.194506E-4
1.0603333E-2 -1.5630804E-3
8.893806E-3 1.6506091E-3
6.7099542E-3 1.8743023E-3
-1.0340102E-2 -2.352132E-5
-8.249405E-3 -1.08271E-3
2.736909E-4 -1.2830155E-2
1.1191098E-2 -2.6881628E-4
-2.2085947E-3 4.0329387E-3
1.0851547E-2 -6.0040166E-4
1.275817E-2 -2.203869E-4
1.3308137E-2 6.972198E-5
7.733009E-3 2.0445776E-3
-1.3083783E-2 -3.5385852E-5
1.1846877E-2 -1.0885441E-3
-1.3046832E-2 -2.514669E-4
-9.631724E-3 1.7165664E-3
-5.0327713E-3 5.8052135E-3
-1.3087079E-2 6.591173E-5
-8.262371E-3 -3.8893886E-3
1.478675E-3 -5.637593E-4
8.890012E-3 1.4941365E-3
-1.2265811E-2 2.9920964E-4
-6.0099037E-3 -3.0223809E-3
-1.3008981E-2 1.8597799E-4
-1.0870537E-2 2.149675E-3
8.43222E-3 2.9554053E-3
-1.2577241E-2 -6.817613E-4
1.2806173E-2 -4.7749598E-4
6.4947675E-3 5.258197E-6
-1.3328568E-2 -2.0997011E-5
3.053372E-3 -8.806791E-3
5.2079083E-3 2.6574342E-3
8.251041E-4 -1.0456599E-2
1.1829534E-2 2.2821433E-4
1.3274289E-2 6.701634E-5
-1.1713724E-2 -8.954412E-4
-1.1773163E-2 -9.501739E-4
-8.850302E-3 -1.9258983E-4
1.2325998E-2 4.656237E-4
-9.864668E-3 9.124593E-4
1.6869397E-3 2.671676E-4
-9.5747E-3 -3.163891E-3
-8.997456E-3 -1.2821214E-3
-1.8732703E-3 -8.788051E-3
9.411706E-3 2.07518E-3
-8.848906E-3 -2.855913E-3
2.4636297E-3 -3.7534724E-3
1.2915688E-2 -2.484844E-4
-1.0520947E-2 -1.1455542E-3
-5.359666E-3 -5.912708E-3
-1.0966149E-2 1.5181802E-3
2.960137E-6 1.3248682E-2
1.1152923E-3 9.880031E-3
-1.0974754E-2 -1.20448014E-4
1.1414689E-2 -1.0701369E-3
-9.5469475E-4 1.0846899E-2
5.1165366E-4 1.6362309E-3
-9.159453E-3 3.4958518E-3
-3.007639E-4 1.1724787E-2
-1.2675891E-2 5.7299325E-4
-1.0060637E-2 2.0714186E-3
1.1868831E-3 -2.4373159E-3
1.1202627E-2 1.2628926E-3
9.369844E-4 -1.234488E-2
-4.826686E-4 1.1099445E-2
-5.2004453E-4 1.2569189E-2
1.0413455E-2 -1.9742968E-3
-4.7102645E-3 -2.0118605E-4
-6.676867E-4 -1.1841187E-2
7.295351E-3 -1.16770716E-4
-3.4860134E-4 -1.2871612E-2
5.06295E-4 -6.496231E-3
7.769833E-3 2.2690624E-3
1.110769E-2 6.6800465E-5
-1.2961617E-2 4.0633927E-4
1.1259434E-2 4.601657E-4
-1.0043076E-2 -1.7374146E-3
-8.346984E-3 -1.144353E-3
-1.0029014E-2 -6.7932805E-4
-1.2325153E-2 3.6079154E-4
-1.1254698E-2 1.4355262E-4
8.392889E-3 -1.6951062E-3
-1.1929702E-3 -5.9371167E-3
-1.237122E-2 6.965555E-4
5.4598525E-3 4.270488E-3
-5.760346E-3 2.0114635E-3
1.276394E-2 -1.9369808E-4
1.2721415E-2 -4.4861177E-4
1.23712355E-2 0
-1.2475126E-2 -1.762422E-5
-2.4653217E-3 6.597584E-3
-1.3751148E-3 4.3129683E-3
8.262445E-3 2.2449777E-3
1.2798488E-2 -5.19116E-4
8.394564E-4 -1.0826042E-2
1.20080635E-2 -1.2045745E-3
1.2957275E-2 -4.205041E-4
-4.169969E-3 -6.2706405E-3
-2.956355E-3 3.4352127E-3
8.625365E-3 1.6748159E-3
1.0386332E-2 -3.300567E-4
-1.2916559E-2 3.7818198E-4
1.058751E-2 1.1176369E-3
8.728521E-3 -2.1056533E-3
-6.7580296E-3 -1.2475176E-3
-1.049405E-2 -9.180929E-4
-9.385066E-3 2.1289657E-3
1.2328923E-2 -8.549189E-5
1.039085E-2 1.0742211E-3
-8.091769E-3 -6.9296476E-4
1.2926893E-2 -4.323853E-4
-8.799862E-3 3.2670526E-3
-8.3953915E-3 3.0528207E-3
-7.275339E-3 -1.0451506E-3
9.661964E-3 -2.8802772E-4
-1.2823684E-2 3.587811E-4
1.1889798E-2 3.788402E-4
-1.2650486E-2 1.5738163E-4
-7.6981336E-3 -3.1921128E-3
-9.512264E-3 2.5931348E-3
3.027382E-3 -3.2016833E-4
1.0245115E-2 -1.8813404E-3
8.69478E-3 1.2985577E-3
6.5813437E-3 1.5906227E-3
-1.004379E-2 3.3131335E-4
-8.049446E-3 -7.690485E-4
-1.7361909E-4 -1.2470861E-2
1.086032E-2 -6.4439833E-4
-2.0069997E-3 3.9927005E-3
1.0519168E-2 -9.5482526E-4
1.2384021E-2 -6.510342E-4
1.2928122E-2 -3.880979E-4
7.580832E-3 1.7209641E-3
-1.2709038E-2 4.137634E-4
1.1469178E-2 -1.4630326E-3
-1.2680549E-2 2.0262567E-4
-9.296167E-3 1.9971374E-3
-4.6893223E-3 5.810781E-3
-1.270877E-2 5.1226345E-4
-8.15817E-3 -3.494634E-3
1.4168766E-3 -5.9820607E-4
8.685737E-3 1.1467114E-3
-1.190311E-2 7.1072846E-4
-5.9407316E-3 -2.729689E-3
-1.2628804E-2 6.262041E-4
-1.0484549E-2 2.4602315E-3
8.2911495E-3 2.581671E-3
-1.2239191E-2 -2.313879E-4
1.2421839E-2 -9.023994E-4
6.3083237E-3 -2.1734503E-4
-1.29462965E-2 4.361232E-4
2.6639933E-3 -8.658313E-3
5.149281E-3 2.4026982E-3
4.4324645E-4 -1.0184395E-2
1.1497433E-2 -1.835167E-4
1.2895154E-2 -3.895668E-4
-1.1407805E-2 -4.685046E-4
-1.1467412E-2 -5.196282E-4
-8.602588E-3 1.16075506E-4
1.1987764E-2 3.0066876E-5
-9.549959E-3 1.2241153E-3
1.647617E-3 2.0171127E-4
-9.407942E-3 -2.7450344E-3
-8.782832E-3 -9.3710836E-4
-2.1204422E-3 -8.471369E-3
9.212341E-3 1.6931902E-3
-8.692455E-3 -2.4707657E-3
2.2642782E-3 -3.7299998E-3
1.253605E-2 -6.837193E-4
-1.0257868E-2 -7.522846E-4
-5.408175E-3 -5.5592353E-3
-1.0599041E-2 1.8501575E-3
4.566555E-4 1.2867885E-2
1.4216459E-3 9.557934E-3
-1.0663524E-2 2.5890933E-4
1.105004E-2 -1.4303515E-3
-5.557447E-4 1.05679175E-2
5.529941E-4 1.5716898E-3
-8.776523E-3 3.7091207E-3
1.09463675E-4 1.1398182E-2
-1.2292028E-2 9.906904E-4
-9.700601E-3 2.356484E-3
1.069298E-3 -2.4079327E-3
1.092398E-2 8.4290275E-4
4.8723587E-4 -1.20222485E-2
-8.8632136E-5 1.079704E-2
-7.459374E-5 1.2225832E-2
-1.0498092E-2 2.0057117E-3
4.7501065E-3 1.9616507E-4
6.901632E-4 1.1939675E-2
-7.356449E-3 1.2814412E-4
3.6986588E-4 1.2979208E-2
-5.012917E-4 6.5515055E-3
-7.838314E-3 -2.2770483E-3
-1.1201062E-2 -5.1537118E-5
1.3069885E-2 -4.282173E-4
-1.1354643E-2 -4.4798976E-4
1.012989E-2 1.7376975E-3
8.41871E-3 1.1420713E-3
1.0114202E-2 6.707452E-4
1.242814E-2 -3.8137997E-4
1.1349007E-2 -1.6079182E-4
-8.460955E-3 1.7212975E-3
1.2114461E-3 5.985275E-3
1.2474117E-2 -7.2002923E-4
-5.511787E-3 -4.298572E-3
5.805854E-3 -2.0365617E-3
-1.2870851E-2 2.1350836E-4
-1.2827607E-2 4.7050242E-4
-1.2475126E-2 1.762422E-5
1.2579913E-2 0
2.4766258E-3 -6.6565005E-3
1.3805183E-3 -4.3511465E-3
-8.335029E-3 -2.2520598E-3
-1.2905226E-2 5.417083E-4
-8.3108334E-4 1.0918152E-2
-1.2107187E-2 1.2317972E-3
-1.3065487E-2 4.4249473E-4
4.213921E-3 6.317359E-3
2.9762876E-3 -3.4682723E-3
-8.7001845E-3 -1.676593E-3
-1.0473083E-2 3.476248E-4
1.302449E-2 -3.9975916E-4
-1.0678011E-2 -1.1119394E-3
-8.798821E-3 2.1357706E-3
6.8165585E-3 1.2483663E-3
1.0583484E-2 9.1085257E-4
9.460846E-3 -2.1602141E-3
-1.2432336E-2 1.0377351E-4
-1.0479639E-2 -1.0684386E-3
8.1607085E-3 6.872567E-4
-1.3034834E-2 4.5443204E-4
8.869107E-3 -3.3070252E-3
8.461544E-3 -3.0904175E-3
7.3379246E-3 1.0435627E-3
-9.742692E-3 3.042107E-4
1.2930862E-2 -3.8006314E-4
-1.1990185E-2 -3.6508276E-4
1.2756498E-2 -1.7672518E-4
7.7673276E-3 3.2079522E-3
9.588451E-3 -2.6284629E-3
-3.052349E-3 3.2716992E-4
-1.0328471E-2 1.9117346E-3
-8.769647E-3 -1.2970758E-3
-6.6388776E-3 -1.594604E-3
1.0127662E-2 -3.4840417E-4
8.118139E-3 7.6403894E-4
1.9284351E-4 1.2575339E-2
-1.0950604E-2 6.6528155E-4
2.0181658E-3 -4.029089E-3
-1.06061455E-2 9.778294E-4
-1.2487089E-2 6.741441E-4
-1.3036134E-2 4.0977506E-4
-7.6469462E-3 -1.7246166E-3
1.2815176E-2 -4.3534342E-4
-1.1563409E-2 1.4916578E-3
1.2786748E-2 -2.2239244E-4
9.371388E-3 -2.0271523E-3
4.720424E-3 -5.8662584E-3
1.2814764E-2 -5.3467E-4
8.2316585E-3 3.5123588E-3
-1.427923E-3 6.052481E-4
-8.760311E-3 -1.1439672E-3
1.2002056E-2 -7.3365413E-4
5.9945085E-3 2.7441487E-3
1.2733963E-2 -6.494547E-4
1.056909E-2 -2.4958283E-3
-8.364454E-3 -2.5915392E-3
1.2342301E-2 2.1589485E-4
-1.2524868E-2 9.276738E-4
-6.360989E-3 2.281572E-4
1.3054395E-2 -4.5822927E-4
-2.67403E-3 8.734819E-3
-5.195946E-3 -2.4155397E-3
-4.324597E-4 1.0270551E-2
-1.1593725E-2 2.014369E-4
-1.3002887E-2 4.11209E-4
1.1504271E-2 4.5618715E-4
1.1564452E-2 5.0765515E-4
8.674664E-3 -1.2930566E-4
-1.2088478E-2 -1.3241134E-5
9.628412E-3 -1.248E-3
-1.6617406E-3 -2.0105804E-4
9.490858E-3 2.7546838E-3
8.857923E-3 9.324659E-4
2.1503174E-3 8.539489E-3
-9.292115E-3 -1.6942851E-3
8.768971E-3 2.4791309E-3
-2.2779792E-3 3.764549E-3
-1.264035E-2 7.073203E-4
1.0345082E-2 7.4398797E-4
5.4615107E-3 5.598216E-3
1.0685414E-2 -1.8807936E-3
-4.788226E-4 -1.2975295E-2
-1.4472008E-3 -9.636173E-3
1.0752705E-2 -2.7627498E-4
-1.1140796E-2 1.458105E-3
5.4535636E-4 -1.0657455E-2
-5.598771E-4 -1.5841005E-3
8.844942E-3 -3.7527715E-3
-1.2662116E-4 -1.1493743E-2
1.2393842E-2 -1.0165215E-3
9.778707E-3 -2.390093E-3
-1.0748472E-3 2.429677E-3
-1.10169165E-2 -8.3441875E-4
-4.7420044E-4 1.2123901E-2
7.399448E-5 -1.0887836E-2
5.7803372E-5 -1.2328606E-2
-3.1280708E-3 -5.160064E-3
8.3136203E-4 2.5520776E-3
-6.181853E-3 2.7157718E-3
-1.5160806E-3 -3.867343E-3
-6.7949663E-3 2.7509453E-3
-3.5653356E-3 1.024552E-3
-3.3826922E-4 -4.59583E-3
-2.1778988E-3 -5.937046E-3
2.7996728E-3 6.8314592E-3
-1.9983568E-3 -6.0963607E-3
1.0748055E-3 5.702205E-3
1.053091E-3 4.6794945E-3
1.6362813E-3 5.483852E-3
2.648548E-3 6.50111E-3
2.3193762E-3 5.973527E-3
-2.576523E-3 -4.1381316E-3
-2.928533E-3 1.819351E-3
2.8367916E-3 6.4587663E-3
1.1894212E-3 -3.7627576E-3
2.2206276E-3 2.6711526E-3
-2.6468784E-3 -6.768413E-3
-2.7743494E-3 -6.694936E-3
-2.4653217E-3 -6.597584E-3
2.4766258E-3 6.6565005E-3
4.009779E-3 0
2.574138E-3 -1.261328E-4
-4.4928025E-4 -4.8537403E-3
-2.8273084E-3 -6.721989E-3
-5.9408178E-3 1.7097155E-3
-3.0353493E-3 -6.163858E-3
-2.8063615E-3 -6.826321E-3
-2.5131493E-3 3.4734502E-3
2.421138E-3 8.920609E-4
-8.2567014E-4 -4.9336646E-3
-2.2457922E-3 -5.4732612E-3
2.7756772E-3 6.8130414E-3
-1.5138272E-3 -5.869043E-3
-2.8623524E-3 -4.2353114E-3
6.8142853E-4 3.8526629E-3
1.6016193E-3 5.7794363E-3
3.00562E-3 4.5808014E-3
-2.5024822E-3 -6.557982E-3
-1.4977909E-3 -5.755513E-3
1.2429574E-3 4.4534355E-3
-2.8066437E-3 -6.8077515E-3
3.4959437E-3 4.0419158E-3
3.3010915E-3 3.8689035E-3
8.9243974E-4 4.088217E-3
-2.0790272E-3 -5.095331E-3
2.746823E-3 6.7673773E-3
-2.167346E-3 -6.416328E-3
2.6049018E-3 6.7151454E-3
-1.6828222E-4 4.7415365E-3
3.2785097E-3 4.5561376E-3
-7.7403814E-4 -1.5507011E-3
-3.044951E-3 -5.088812E-3
-1.0401618E-3 -4.895704E-3
-4.63241E-4 -3.8268093E-3
2.178201E-3 5.2903323E-3
1.193948E-3 4.446027E-3
-6.6161156E-3 2.5777658E-3
-2.5078864E-3 -5.663397E-3
2.5292605E-3 2.7467412E-4
-2.6054531E-3 -5.4195994E-3
-2.815066E-3 -6.4746654E-3
-2.7832699E-3 -6.8172314E-3
-5.929064E-4 -4.3858113E-3
2.7532985E-3 6.69528E-3
-3.0657966E-3 -5.824966E-3
2.6350217E-3 6.722162E-3
2.9176006E-3 4.559662E-3
4.0333727E-3 1.3428534E-3
2.8057748E-3 6.6755074E-3
-2.3794148E-4 5.0471597E-3
-6.013766E-4 -6.3641113E-4
-1.1193393E-3 -4.860621E-3
2.7510657E-3 6.206299E-3
-2.7188385E-4 3.7121621E-3
2.8506042E-3 6.6101556E-3
3.4013877E-3 5.1011415E-3
-2.7544214E-4 -4.936144E-3
2.3156086E-3 6.5732747E-3
-2.9566558E-3 -6.444742E-3
-1.3730236E-3 -3.3209187E-3
2.8125034E-3 6.8173544E-3
-5.1483577E-3 3.047075E-4
2.5521862E-4 -3.2249193E-3
-5.51967E-3 1.7931478E-3
-2.389061E-3 -6.095014E-3
-2.777483E-3 -6.7993565E-3
2.0234769E-3 6.1771483E-3
2.008091E-3 6.219125E-3
1.7762141E-3 4.5646313E-3
-2.3728695E-3 -6.3990704E-3
2.5559224E-3 4.8490562E-3
-2.2076197E-4 -9.188714E-4
4.1087298E-4 5.564285E-3
1.2504695E-3 4.870632E-3
-4.095225E-3 2.8189945E-3
-9.3284255E-4 -5.2503604E-3
4.1455944E-4 5.1280595E-3
-2.440432E-3 -4.6423142E-4
-2.8627932E-3 -6.549229E-3
1.6429792E-3 5.620438E-3
-1.887009E-3 3.9920174E-3
3.098851E-3 5.2837757E-3
6.771446E-3 -2.8078277E-3
4.8139454E-3 -2.6628552E-3
2.263088E-3 5.6352657E-3
-2.9648424E-3 -5.607951E-3
5.7466216E-3 -1.8095798E-3
7.279828E-4 -6.08116E-4
3.7270477E-3 3.9413744E-3
6.0568396E-3 -2.32979E-3
2.977873E-3 6.3579194E-3
3.1898355E-3 4.703737E-3
-1.4972393E-3 -9.040772E-5
-1.7273944E-3 -5.993734E-3
-6.508564E-3 2.1359327E-3
5.775727E-3 -2.1043504E-3
6.534905E-3 -2.3965647E-3
-1.8457958E-3 -3.4109782E-3
4.5342653E-4 1.6644964E-3
-4.053962E-3 1.5489723E-3
-8.5161836E-4 -2.5303895E-3
-4.4486653E-3 1.5522661E-3
-2.3210493E-3 5.455744E-4
-7.258932E-5 -2.961003E-3
-1.2113776E-3 -3.8798845E-3
1.5823997E-3 4.4736257E-3
-1.0911062E-3 -3.976512E-3
5.1061745E-4 3.6944258E-3
5.2884815E-4 3.037198E-3
8.779336E-4 3.5719124E-3
1.4957747E-3 4.2567984E-3
1.3010534E-3 3.907755E-3
-1.5238674E-3 -2.7375838E-3
-1.937246E-3 1.075839E-3
1.617952E-3 4.2355377E-3
8.819293E-4 -2.378144E-3
1.3415407E-3 1.7846395E-3
-1.4862943E-3 -4.4283457E-3
-1.5704376E-3 -4.385186E-3
-1.3751148E-3 -4.3129683E-3
1.3805183E-3 4.3511465E-3
2.574138E-3 1.261328E-4
1.6564745E-3 0
-1.3574155E-4 -3.1300643E-3
-1.6035845E-3 -4.404219E-3
-3.8675785E-3 9.107013E-4
-1.7546959E-3 -4.0524625E-3
-1.5868554E-3 -4.470538E-3
-1.7226159E-3 2.1507791E-3
1.5262251E-3 6.4883195E-4
-3.7485655E-4 -3.193213E-3
-1.2695517E-3 -3.5842867E-3
1.567575E-3 4.4610472E-3
-7.8720576E-4 -3.8153396E-3
-1.704303E-3 -2.808961E-3
3.1626274E-4 2.4947103E-3
8.463841E-4 3.7605774E-3
1.7854081E-3 3.0352601E-3
-1.4002165E-3 -4.288714E-3
-7.8048225E-4 -3.741953E-3
6.578465E-4 2.898049E-3
-1.5876204E-3 -4.458625E-3
2.1171302E-3 2.7047382E-3
1.9974841E-3 2.5875408E-3
4.44315E-4 2.6525653E-3
-1.1743825E-3 -3.3364228E-3
1.5504877E-3 4.4308244E-3
-1.1895265E-3 -4.187235E-3
1.4610223E-3 4.3928293E-3
-2.571825E-4 3.0386073E-3
1.9613695E-3 3.0280107E-3
-4.481261E-4 -1.0198443E-3
-1.7946769E-3 -3.3626226E-3
-5.137468E-4 -3.1755904E-3
-1.7700733E-4 -2.47125E-3
1.2319147E-3 3.4647267E-3
6.266173E-4 2.891751E-3
-4.3284018E-3 1.4467172E-3
-1.4318258E-3 -3.7145922E-3
1.6150565E-3 2.5589232E-4
-1.5021292E-3 -3.5611512E-3
-1.603505E-3 -4.24506E-3
-1.572317E-3 -4.463976E-3
-2.4266384E-4 -2.8341885E-3
1.5569127E-3 4.3847444E-3
-1.7849024E-3 -3.8358627E-3
1.4801375E-3 4.3982808E-3
1.7295674E-3 3.0189205E-3
2.5470431E-3 9.889399E-4
1.5912228E-3 4.373702E-3
-3.1151518E-4 3.2326158E-3
-3.660436E-4 -4.274708E-4
-5.656797E-4 -3.1555593E-3
1.5708609E-3 4.070766E-3
-2.913108E-4 2.374526E-3
1.6220574E-3 4.3331585E-3
2.023109E-3 3.3817496E-3
-2.155135E-5 -3.1774966E-3
1.2797688E-3 4.292653E-3
-1.6953419E-3 -4.2303046E-3
-7.769693E-4 -2.175104E-3
1.5910805E-3 4.464974E-3
-3.3146509E-3 3.366317E-5
2.652854E-4 -2.0622571E-3
-3.5998411E-3 9.775098E-4
-1.3419671E-3 -3.9879372E-3
-1.5691646E-3 -4.452319E-3
1.1046911E-3 4.0291646E-3
1.0934935E-3 4.055628E-3
9.96681E-4 2.986207E-3
-1.3220083E-3 -4.182621E-3
1.4882796E-3 3.1933244E-3
-1.12817186E-4 -5.968277E-4
8.873428E-5 3.585001E-3
6.495457E-4 3.166111E-3
-2.7176666E-3 1.6808752E-3
-4.3369553E-4 -3.399892E-3
1.0482284E-4 3.3050755E-3
-1.5520691E-3 -3.7478734E-4
-1.6317989E-3 -4.294429E-3
8.779371E-4 3.6598071E-3
-1.3369679E-3 2.5033774E-3
1.8231459E-3 3.4894778E-3
4.435356E-3 -1.5895227E-3
3.1741483E-3 -1.558031E-3
1.2755587E-3 3.6888318E-3
-1.7269198E-3 -3.693372E-3
3.7460527E-3 -9.809198E-4
4.8646858E-4 -3.6748956E-4
2.2686534E-3 2.647464E-3
3.9615664E-3 -1.3051179E-3
1.7116938E-3 4.175235E-3
1.8998005E-3 3.119975E-3
-9.5833145E-4 -1.0513619E-4
-9.203861E-4 -3.9021054E-3
-4.2454596E-3 1.1664589E-3
3.7740099E-3 -1.1692365E-3
4.2705676E-3 -1.3329468E-3
6.59662E-3 -3.2082887E-3
-3.182379E-3 7.203931E-4
-2.594723E-3 -7.787274E-3
4.8511955E-3 -1.4018578E-3
-2.5686023E-3 -8.533374E-3
-8.4071327E-4 -4.4305488E-3
5.601042E-3 1.0547841E-4
7.4306745E-3 -1.9710704E-3
-8.583007E-3 2.6234968E-3
7.603404E-3 -1.7358888E-3
-7.0228092E-3 6.621161E-4
-5.782409E-3 7.5042195E-4
-6.821408E-3 1.3662339E-3
-8.166195E-3 2.477579E-3
-7.4906857E-3 2.138238E-3
5.2977973E-3 -2.6551567E-3
-1.8741497E-3 -3.748769E-3
-8.136031E-3 2.7101876E-3
4.4214567E-3 1.861368E-3
-3.482178E-3 2.3887232E-3
8.4895715E-3 -2.4456072E-3
8.414912E-3 -2.608141E-3
8.262445E-3 -2.2449777E-3
-8.335029E-3 2.2520598E-3
-4.4928025E-4 4.8537403E-3
-1.3574155E-4 3.1300643E-3
5.9256745E-3 0
8.453594E-3 -2.6692154E-3
-1.4039231E-3 -7.382782E-3
7.8012994E-3 -2.98358E-3
8.577538E-3 -2.6321693E-3
-3.922938E-3 -3.4312927E-3
-1.3510971E-3 2.8307766E-3
6.0645943E-3 -4.4665544E-4
6.8768817E-3 -2.105219E-3
-8.558025E-3 2.5965152E-3
7.273952E-3 -1.1748472E-3
5.4474575E-3 -2.990258E-3
-4.7399057E-3 3.931766E-4
-7.175322E-3 1.2911578E-3
-5.881717E-3 3.1249688E-3
8.218671E-3 -2.2943974E-3
7.1347295E-3 -1.1681562E-3
-5.530044E-3 1.0055794E-3
8.555091E-3 -2.6345914E-3
-5.284348E-3 3.7788735E-3
-5.053088E-3 3.5623952E-3
-5.048681E-3 6.222077E-4
6.400721E-3 -1.9456997E-3
-8.499516E-3 2.566704E-3
8.009652E-3 -1.9045946E-3
-8.420389E-3 2.4007643E-3
-5.720659E-3 -7.349722E-4
-5.8824383E-3 3.4580587E-3
1.963814E-3 -7.632042E-4
6.5010586E-3 -3.1156573E-3
6.042676E-3 -7.105457E-4
4.684164E-3 -1.319627E-4
-6.6478774E-3 2.043898E-3
-5.5155843E-3 9.4708486E-4
-2.3790128E-3 -8.297475E-3
7.1364036E-3 -2.4011736E-3
-6.158802E-4 3.030832E-3
6.8522245E-3 -2.5465924E-3
8.152842E-3 -2.6821077E-3
8.563947E-3 -2.605236E-3
5.375351E-3 -2.2628541E-4
-8.41297E-3 2.5826206E-3
7.3944894E-3 -3.0584075E-3
-8.432257E-3 2.436437E-3
-5.846266E-3 3.0207918E-3
-2.0774151E-3 4.7318377E-3
-8.394916E-3 2.6483573E-3
-6.082804E-3 -8.5353747E-4
8.377421E-4 -6.566443E-4
6.0090814E-3 -8.103191E-4
-7.82082E-3 2.6347064E-3
-4.4630184E-3 -7.4504217E-4
-8.320833E-3 2.7099445E-3
-6.55592E-3 3.5457334E-3
6.0059447E-3 2.1965997E-4
-8.216244E-3 2.0664777E-3
8.132486E-3 -2.8568516E-3
4.1737333E-3 -1.2899155E-3
-8.567371E-3 2.640609E-3
2.0801275E-4 -6.266103E-3
3.8750905E-3 6.7027565E-4
-1.5521038E-3 -6.8823416E-3
7.645551E-3 -2.2089775E-3
8.541662E-3 -2.600234E-3
-7.7040107E-3 1.757244E-3
-7.7530984E-3 1.7339166E-3
-5.724393E-3 1.6386147E-3
8.01179E-3 -2.1553098E-3
-6.1560455E-3 2.550564E-3
1.137007E-3 -1.6427103E-4
-6.7814686E-3 -1.2610485E-4
-6.035892E-3 9.6792716E-4
-2.95347E-3 -5.273028E-3
6.4599556E-3 -5.409007E-4
-6.253841E-3 -7.2765055E-5
8.3538186E-4 -2.9020684E-3
8.248447E-3 -2.7315258E-3
-6.987494E-3 1.359038E-3
-4.6208077E-3 -2.7314685E-3
-6.7430963E-3 3.1590569E-3
2.640093E-3 8.511277E-3
2.6839373E-3 6.1255265E-3
-7.0749223E-3 2.108003E-3
7.1204877E-3 -2.96052E-3
1.546566E-3 7.1589015E-3
6.5454195E-4 9.4934244E-4
-5.1885396E-3 4.069885E-3
2.1415083E-3 7.5927014E-3
-8.029766E-3 2.8922625E-3
-6.051168E-3 3.3341823E-3
2.7719617E-4 -1.802242E-3
7.4488167E-3 -1.4193938E-3
-1.8562352E-3 -8.117782E-3
1.9001173E-3 7.2271605E-3
2.1687723E-3 8.178868E-3
1.0855938E-2 -1.6055168E-3
-4.864496E-3 -4.057839E-4
-1.9387169E-4 -1.2278151E-2
7.5522023E-3 1.85321E-4
1.7947228E-4 -1.3330773E-2
7.963718E-4 -6.699339E-3
7.942959E-3 2.6734606E-3
1.1488499E-2 5.3520343E-4
-1.3426308E-2 -1.2351629E-4
1.1628979E-2 9.4852125E-4
-1.0317018E-2 -2.2188406E-3
-8.5872365E-3 -1.5341262E-3
-1.0346869E-2 -1.1236222E-3
-1.2765952E-2 -1.439303E-4
-1.1649413E-2 -3.2375386E-4
8.753874E-3 -1.4014697E-3
-9.850397E-4 -6.1922194E-3
-1.2827699E-2 2.0149625E-4
5.4692174E-3 4.6470766E-3
-6.043689E-3 1.8392183E-3
1.3212882E-2 3.3520695E-4
1.3179585E-2 6.970531E-5
1.2798488E-2 5.19116E-4
-1.2905226E-2 -5.417083E-4
-2.8273084E-3 6.721989E-3
-1.6035845E-3 4.404219E-3
8.453594E-3 2.6692154E-3
1.3262278E-2 0
1.3227254E-3 -1.1164704E-2
1.2473319E-2 -7.4229913E-4
1.3422412E-2 1.0868065E-4
-4.050858E-3 -6.662181E-3
-3.2026023E-3 3.4297977E-3
8.852972E-3 2.0945908E-3
1.0758883E-2 9.4371084E-5
-1.3378514E-2 -1.5075557E-4
1.090626E-2 1.6005035E-3
9.118325E-3 -1.8121116E-3
-6.9390764E-3 -1.5741794E-3
-1.0817946E-2 -1.3901468E-3
-9.798522E-3 1.8086794E-3
1.2758302E-2 4.2889625E-4
1.0704632E-2 1.5473361E-3
-8.342148E-3 -1.0564399E-3
1.3391479E-2 9.511427E-5
-9.240865E-3 3.0106278E-3
-8.813435E-3 2.8059692E-3
-7.482744E-3 -1.38653E-3
1.0007734E-2 1.074561E-4
-1.3281617E-2 -1.669292E-4
1.2284527E-2 8.908374E-4
-1.30939875E-2 -3.6801686E-4
-7.83005E-3 -3.625381E-3
-9.949592E-3 2.2835422E-3
3.1453704E-3 -2.0419213E-4
1.06778825E-2 -1.5164138E-3
8.940573E-3 1.7082511E-3
6.7418916E-3 1.9217192E-3
-1.0404563E-2 -7.8697114E-5
-8.29517E-3 -1.1333751E-3
3.436808E-4 -1.2908838E-2
1.1262431E-2 -2.109373E-4
-2.2438532E-3 4.046375E-3
1.0922523E-2 -5.464008E-4
1.2839032E-2 -1.5386574E-4
1.3390891E-2 1.4098195E-4
7.77043E-3 2.0985028E-3
-1.3165318E-2 -1.0523752E-4
1.1926668E-2 -1.0322959E-3
-1.3126986E-2 -3.2247158E-4
-9.701022E-3 1.6760291E-3
-5.095102E-3 5.8146906E-3
-1.3169174E-2 -3.324818E-6
-8.29328E-3 -3.957654E-3
1.4909116E-3 -5.594113E-4
8.937589E-3 1.5507808E-3
-1.2344019E-2 2.3580107E-4
-6.031358E-3 -3.0732437E-3
-1.3091227E-2 1.1790704E-4
-1.0949877E-2 2.10525E-3
8.469162E-3 3.0187406E-3
-1.2652173E-2 -7.529542E-4
1.2888705E-2 -4.123254E-4
6.5353075E-3 3.9855535E-5
-1.3411709E-2 -9.206144E-5
3.119313E-3 -8.845551E-3
5.2262954E-3 2.7017493E-3
8.859071E-4 -1.0517523E-2
1.1902209E-2 2.9259536E-4
1.3356846E-2 1.3807956E-4
-1.1782124E-2 -9.633735E-4
-1.1841645E-2 -1.018764E-3
-8.904557E-3 -2.408936E-4
1.2400511E-2 5.341297E-4
-9.9311415E-3 8.6566014E-4
1.6960549E-3 2.778142E-4
-9.617669E-3 -3.2346086E-3
-9.046832E-3 -1.3380132E-3
-1.8382019E-3 -8.852913E-3
9.459448E-3 2.1382305E-3
-8.888979E-3 -2.9208446E-3
2.4989937E-3 -3.7638063E-3
1.2997684E-2 -1.8130016E-4
-1.0580566E-2 -1.208701E-3
-5.361677E-3 -5.9781643E-3
-1.1042724E-2 1.469302E-3
-6.752983E-5 1.3331451E-2
1.0696782E-3 9.94768E-3
-1.1042663E-2 -1.7960685E-4
1.1491681E-2 -1.0160734E-3
-1.0183839E-3 1.0909569E-2
5.0614175E-4 1.649174E-3
-9.235269E-3 3.4689421E-3
-3.6504088E-4 1.1796421E-2
-1.2758117E-2 5.0911226E-4
-1.0134502E-2 2.0308157E-3
1.2072677E-3 -2.4462235E-3
1.126588E-2 1.3304E-3
1.008535E-3 -1.2417003E-2
-5.447534E-4 1.1166206E-2
-5.901849E-4 1.2644932E-2
2.4343133E-3 8.978825E-3
-1.4356013E-4 -4.1355942E-3
1.0316892E-2 -1.387781E-3
5.9721567E-4 6.3762227E-3
1.1240265E-2 -1.1784699E-3
5.719193E-3 2.2523222E-6
-1.4584257E-3 6.953333E-3
6.95261E-4 9.724847E-3
-1.235104E-3 -1.1315111E-2
3.6132455E-4 9.884331E-3
8.389299E-4 -8.906568E-3
4.3503178E-4 -7.382078E-3
-8.604522E-5 -8.822465E-3
-1.1520572E-3 -1.0761233E-2
-8.89316E-4 -9.839222E-3
2.0528873E-3 7.2295764E-3
5.1146084E-3 -1.4468315E-3
-1.4490096E-3 -1.0778762E-2
-3.3666138E-3 5.067682E-3
-2.1510988E-3 -4.9043777E-3
1.0356085E-3 1.1156553E-2
1.2557973E-3 1.1102043E-2
8.394564E-4 1.0826042E-2
-8.3108334E-4 -1.0918152E-2
-5.9408178E-3 -1.7097155E-3
-3.8675785E-3 -9.107013E-4
-1.4039231E-3 7.382782E-3
1.3227254E-3 1.1164704E-2
9.530809E-3 0
1.8689339E-3 1.0426494E-2
1.2472047E-3 1.1310349E-2
5.204469E-3 -4.074629E-3
-3.2067525E-3 -2.3540016E-3
-8.803494E-4 7.661684E-3
9.936014E-4 9.066661E-3
-1.2074062E-3 -1.1277592E-2
-2.596208E-4 9.340945E-3
2.4349312E-3 7.4954303E-3
6.3313066E-4 -5.998588E-3
9.134183E-5 -9.245618E-3
-2.499882E-3 -8.068389E-3
9.1139897E-4 1.0783213E-2
-2.349721E-4 9.165903E-3
5.7340712E-5 -7.1281116E-3
1.25554E-3 1.1282957E-2
-3.4561101E-3 -7.4790535E-3
-3.2411905E-3 -7.139639E-3
4.209373E-4 -6.437553E-3
9.0767E-4 8.43562E-3
-1.1841264E-3 -1.1197633E-2
4.7526642E-4 1.0430444E-2
-9.961294E-4 -1.1059735E-2
2.2710504E-3 -6.953223E-3
-2.9147065E-3 -8.148205E-3
4.8560323E-4 2.6275304E-3
2.3415443E-3 8.837818E-3
-5.463764E-4 7.696898E-3
-9.4537E-4 5.8672526E-3
-9.714583E-4 -8.766817E-3
1.2679334E-4 -7.0962375E-3
1.0901443E-2 -9.981503E-4
1.3008442E-3 9.460117E-3
-3.63019E-3 -1.4853944E-3
1.5493493E-3 9.140511E-3
1.4100428E-3 1.0793054E-2
1.2168679E-3 1.1287037E-2
-9.916109E-4 6.7507476E-3
-1.2244621E-3 -1.1093576E-2
2.0585437E-3 9.9373795E-3
-1.0377627E-3 -1.1082972E-2
-2.3784868E-3 -7.999539E-3
-5.4031983E-3 -3.7093228E-3
-1.3106406E-3 -1.1086658E-2
2.5045702E-3 -7.376327E-3
6.196317E-4 1.1993141E-3
-4.1410938E-4 7.6786806E-3
-1.4296486E-3 -1.036816E-2
1.9856337E-3 -5.3839455E-3
-1.4049239E-3 -1.1008948E-2
-2.8643778E-3 -9.008067E-3
-1.6966144E-3 7.430748E-3
-6.2800926E-4 -1.072619E-2
1.6325783E-3 1.0809092E-2
6.182527E-4 5.505652E-3
-1.260128E-3 -1.1299683E-2
7.757638E-3 1.7437409E-3
-1.753189E-3 4.6691615E-3
8.942419E-3 -3.031833E-4
9.4075926E-4 1.0048927E-2
1.2159162E-3 1.1258086E-2
-3.640952E-4 -1.0014736E-2
-3.2340136E-4 -1.0070367E-2
-6.8531034E-4 -7.5202296E-3
7.8712485E-4 1.0492507E-2
-1.7192379E-3 -8.274086E-3
-6.471727E-5 1.4555133E-3
1.7637934E-3 -8.419136E-3
2.2409794E-4 -7.7494257E-3
7.2693937E-3 -2.4304234E-3
-8.5659925E-4 8.176592E-3
1.572331E-3 -7.7744033E-3
3.4177587E-3 1.728364E-3
1.4489617E-3 1.0923877E-2
-3.7730057E-5 -9.027685E-3
4.4979006E-3 -5.109907E-3
-2.338272E-3 -9.149655E-3
-1.12296725E-2 1.2727756E-3
-8.267661E-3 1.8926376E-3
-9.501499E-4 -9.314058E-3
2.0015035E-3 9.572809E-3
-9.285673E-3 2.3076059E-4
-1.3378587E-3 5.9057184E-4
-3.8413792E-3 -7.428633E-3
-9.967097E-3 8.6922076E-4
-1.7010331E-3 -1.0689505E-2
-2.720394E-3 -8.329075E-3
2.1797344E-3 7.723489E-4
3.6297354E-6 9.616747E-3
1.05537055E-2 -3.8939645E-4
-9.454479E-3 6.55077E-4
-1.070386E-2 7.64313E-4
1.029999E-2 -9.0239174E-4
-4.5523997E-3 -6.539136E-4
5.0487794E-4 -1.1558587E-2
7.0925574E-3 5.9699814E-4
9.1492827E-4 -1.2527693E-2
1.1239633E-3 -6.2562283E-3
7.3208045E-3 2.958992E-3
1.0775105E-2 1.146384E-3
-1.2620677E-2 -8.6764863E-4
1.0884094E-2 1.5429766E-3
-9.579079E-3 -2.6642948E-3
-7.990524E-3 -1.923496E-3
-9.6684545E-3 -1.6359003E-3
-1.19984625E-2 -8.498874E-4
-1.093828E-2 -9.565198E-4
8.311556E-3 -8.2813745E-4
-5.7985797E-4 -5.8789835E-3
-1.207587E-2 -5.2846555E-4
4.8837587E-3 4.676743E-3
-5.7870983E-3 1.3915357E-3
1.2408099E-2 1.0547999E-3
1.2391643E-2 8.032285E-4
1.20080635E-2 1.2045745E-3
-1.2107187E-2 -1.2317972E-3
-3.0353493E-3 6.163858E-3
-1.7546959E-3 4.0524625E-3
7.8012994E-3 2.98358E-3
1.2473319E-2 7.4229913E-4
1.8689339E-3 -1.0426494E-2
1.177284E-2 0
1.2617843E-2 8.5347646E-4
-3.436989E-3 -6.492584E-3
-3.2040507E-3 3.0465107E-3
8.209082E-3 2.4654928E-3
1.0113566E-2 6.909393E-4
-1.2574201E-2 -8.9059223E-4
1.0167877E-2 2.1157218E-3
8.67731E-3 -1.1939519E-3
-6.4381696E-3 -1.8689178E-3
-1.009659E-2 -1.9129363E-3
-9.31685E-3 1.1526531E-3
1.1975317E-2 1.1174727E-3
9.981218E-3 2.0544322E-3
-7.7867513E-3 -1.4605093E-3
1.258951E-2 8.38986E-4
-8.859642E-3 2.3143108E-3
-8.446185E-3 2.1457511E-3
-6.959998E-3 -1.7228611E-3
9.40637E-3 6.6120335E-4
-1.24821635E-2 -9.003801E-4
1.15038715E-2 1.5254162E-3
-1.22944405E-2 -1.0790034E-3
-7.1613328E-3 -3.8479639E-3
-9.485511E-3 1.5908112E-3
2.969684E-3 -1.5996367E-5
1.0127542E-2 -8.285554E-4
8.313095E-3 2.107039E-3
6.233263E-3 2.1847466E-3
-9.781201E-3 -6.563662E-4
-7.738264E-3 -1.5302383E-3
1.0457524E-3 -1.2121668E-2
1.06042465E-2 4.3197713E-4
-2.336847E-3 3.6800702E-3
1.0303335E-2 9.744506E-5
1.2083864E-2 5.7389704E-4
1.258639E-2 8.8209315E-4
7.19072E-3 2.4085813E-3
-1.2376237E-2 -8.3584903E-4
1.1274941E-2 -3.0334145E-4
-1.2328026E-2 -1.0380149E-3
-9.217726E-3 1.0333508E-3
-5.1174513E-3 5.1836036E-3
-1.2385568E-2 -7.402148E-4
-7.5784083E-3 -4.186398E-3
1.4335293E-3 -4.426852E-4
8.319103E-3 1.9587695E-3
-1.1622882E-2 -4.6912988E-4
-5.500547E-3 -3.2279987E-3
-1.2319042E-2 -6.2183203E-4
-1.0416312E-2 1.3671389E-3
7.796379E-3 3.3131836E-3
-1.1857364E-2 -1.4163128E-3
1.2145047E-2 3.335929E-4
6.144298E-3 4.032704E-4
-1.2608708E-2 -8.372472E-4
3.4288396E-3 -8.1447475E-3
4.76417E-3 2.8335445E-3
1.4218785E-3 -9.842261E-3
1.1177781E-2 9.413642E-4
1.2554532E-2 8.774572E-4
-1.1027297E-2 -1.5655173E-3
-1.1080177E-2 -1.6209439E-3
-8.361351E-3 -7.249571E-4
1.1632922E-2 1.1964202E-3
-9.388799E-3 2.5831006E-4
1.5796088E-3 3.5621662E-4
-8.864479E-3 -3.5804925E-3
-8.433756E-3 -1.7647739E-3
-1.2333457E-3 -8.429147E-3
8.777036E-3 2.5404808E-3
-8.196701E-3 -3.2446089E-3
2.5609937E-3 -3.400031E-3
1.2234612E-2 5.569745E-4
-9.883487E-3 -1.7289985E-3
-4.708114E-3 -5.922626E-3
-1.0468042E-2 7.638259E-4
-8.0968306E-4 1.2534598E-2
4.4926553E-4 9.415773E-3
-1.0375693E-2 -7.8698783E-4
1.0864924E-2 -3.1243043E-4
-1.5684172E-3 1.0203571E-2
3.8372655E-4 1.5793955E-3
-8.880032E-3 2.745674E-3
-1.0035787E-3 1.1074233E-2
-1.2027645E-2 -2.3525466E-4
-9.645277E-3 1.3427695E-3
1.2723653E-3 -2.2331283E-3
1.052122E-2 1.8818149E-3
1.643527E-3 -1.1621879E-2
-1.1373264E-3 1.0471449E-2
-1.2628206E-3 1.1859664E-2
1.0973859E-2 -1.7138636E-3
-4.9265567E-3 -3.7082046E-4
-2.9682842E-4 -1.2424812E-2
7.644909E-3 1.2567024E-4
7.2397524E-5 -1.34932045E-2
7.510883E-4 -6.7867553E-3
8.060772E-3 2.6406506E-3
1.1631601E-2 4.4752058E-4
-1.3589433E-2 -1.49832285E-5
1.1777164E-2 8.646775E-4
-1.0459772E-2 -2.1610865E-3
-8.703493E-3 -1.4822797E-3
-1.0481007E-2 -1.0523996E-3
-1.2921272E-2 -4.1055282E-5
-1.1792725E-2 -2.3219938E-4
8.848086E-3 -1.4901267E-3
-1.0476769E-3 -6.258914E-3
-1.2980933E-2 3.0904872E-4
5.5733356E-3 4.6583684E-3
-6.10159E-3 1.9109522E-3
1.3375166E-2 2.309785E-4
1.333929E-2 -3.7456444E-5
1.2957275E-2 4.205041E-4
-1.3065487E-2 -4.4249473E-4
-2.8063615E-3 6.826321E-3
-1.5868554E-3 4.470538E-3
8.577538E-3 2.6321693E-3
1.3422412E-2 -1.0868065E-4
1.2472047E-3 -1.1310349E-2
1.2617843E-2 -8.5347646E-4
1.3585368E-2 0
-4.154363E-3 -6.709427E-3
-3.213165E-3 3.4974548E-3
8.9770295E-3 2.047334E-3
1.0889563E-2 7.3448473E-6
-1.3541285E-2 -4.2942516E-5
1.1051062E-2 1.5304546E-3
9.213572E-3 -1.9087138E-3
-7.035761E-3 -1.5363226E-3
-1.0959958E-2 -1.3182814E-3
-9.902012E-3 1.9108145E-3
1.2915864E-2 3.295245E-4
1.0846562E-2 1.4782979E-3
-8.451531E-3 -1.0008345E-3
1.3553951E-2 -1.34765305E-5
-9.32777E-3 3.122705E-3
-8.896857E-3 2.912073E-3
-7.5844545E-3 -1.3419524E-3
1.0129452E-2 2.6742871E-5
-1.3443351E-2 -6.01057E-5
1.2440154E-2 8.0092583E-4
-1.32551035E-2 -2.6515892E-4
-7.9543E-3 -3.6049897E-3
-1.0051012E-2 2.392648E-3
3.1816752E-3 -2.3243295E-4
1.07943835E-2 -1.6222254E-3
9.062523E-3 1.6556118E-3
6.8390425E-3 1.889675E-3
-1.0530836E-2 5.61495E-6
-8.404616E-3 -1.0790832E-3
2.4204659E-4 -1.3067519E-2
1.1396688E-2 -3.0577675E-4
-2.237787E-3 4.1136197E-3
1.1049927E-2 -6.42505E-4
1.2992794E-2 -2.60936E-4
1.3553732E-2 3.2950175E-5
7.881449E-3 2.0601642E-3
-1.3325143E-2 1.377413E-6
1.2062215E-2 -1.1424953E-3
-1.3288127E-2 -2.187932E-4
-9.80442E-3 1.775763E-3
-5.108972E-3 5.9266514E-3
-1.33282095E-2 1.04552884E-4
-8.425847E-3 -3.937479E-3
1.5043289E-3 -5.7838333E-4
9.058213E-3 1.4962645E-3
-1.2491131E-2 3.3980387E-4
-6.129367E-3 -3.0609255E-3
-1.3248329E-2 2.2660923E-4
-1.1064838E-2 2.2204006E-3
8.596158E-3 2.9857876E-3
-1.2811109E-2 -6.583652E-4
1.3040948E-2 -5.2292336E-4
6.6145435E-3 -1.3217961E-5
-1.3574401E-2 1.6732234E-5
3.0844896E-3 -8.977916E-3
5.3115394E-3 2.691543E-3
8.1041566E-4 -1.0651774E-2
1.2048318E-2 1.9859303E-4
1.3519252E-2 3.0291296E-5
-1.193228E-2 -8.784549E-4
-1.1992973E-2 -9.3402585E-4
-9.014048E-3 -1.7083173E-4
1.2554615E-2 4.3896053E-4
-1.0043959E-2 9.574951E-4
1.7188102E-3 2.6726985E-4
-9.760302E-3 -3.1948502E-3
-9.167031E-3 -1.280033E-3
-1.9329438E-3 -8.944741E-3
9.591186E-3 2.0865307E-3
-9.020244E-3 -2.883269E-3
2.498324E-3 -3.8297302E-3
1.3153136E-2 -2.9000195E-4
-1.0718225E-2 -1.136591E-3
-5.4754047E-3 -6.0064085E-3
-1.1164019E-2 1.5775351E-3
4.0902418E-5 1.34929735E-2
1.1641124E-3 1.0059025E-2
-1.1177467E-2 -9.12841E-5
1.1622109E-2 -1.1225123E-3
-9.4127964E-4 1.1049641E-2
5.2576757E-4 1.6649389E-3
-9.318352E-3 3.5865074E-3
-2.7278063E-4 1.1941846E-2
-1.290799E-2 6.198086E-4
-1.0240226E-2 2.1383858E-3
1.2017987E-3 -2.4856532E-3
1.141281E-2 1.2541431E-3
9.1895886E-4 -1.2575193E-2
-4.5982705E-4 1.1305493E-2
-4.9368956E-4 1.2802447E-2
-2.5093437E-3 5.943771E-3
1.6896633E-3 -2.3196905E-3
6.2270304E-3 3.6528732E-3
-2.3998541E-3 3.7371735E-3
6.6417707E-3 4.161935E-3
3.122105E-3 2.4463097E-3
-3.769101E-3 3.1734833E-3
-3.7779252E-3 5.607666E-3
4.1630063E-3 -6.706853E-3
-4.0284595E-3 5.5519906E-3
4.2658653E-3 -4.50493E-3
3.3935567E-3 -3.8451308E-3
3.7248097E-3 -4.8544514E-3
3.9715604E-3 -6.368894E-3
3.720855E-3 -5.7530855E-3
-1.969786E-3 4.825494E-3
3.4114758E-3 1.3965386E-3
3.816899E-3 -6.50542E-3
-4.0049446E-3 1.3279975E-3
9.2208246E-4 -3.597765E-3
-4.204158E-3 6.534981E-3
-4.060615E-3 6.59935E-3
-4.169969E-3 6.2706405E-3
4.213921E-3 -6.317359E-3
-2.5131493E-3 -3.4734502E-3
-1.7226159E-3 -2.1507791E-3
-3.922938E-3 3.4312927E-3
-4.050858E-3 6.662181E-3
5.204469E-3 4.074629E-3
-3.436989E-3 6.492584E-3
-4.154363E-3 6.709427E-3
4.5839865E-3 0
-7.447175E-4 -2.6564016E-3
-3.7562677E-3 3.8074313E-3
-3.333622E-3 5.3757993E-3
4.162091E-3 -6.674524E-3
-4.135228E-3 4.989797E-3
-1.8748225E-3 5.134E-3
2.9102599E-3 -3.0049593E-3
4.0025823E-3 -5.009685E-3
2.0843071E-3 -5.4746424E-3
-4.1123736E-3 6.27801E-3
-4.046934E-3 4.90475E-3
3.0787352E-3 -3.8679184E-3
-4.1381004E-3 6.698032E-3
1.3101876E-3 -5.561634E-3
1.2824412E-3 -5.2844076E-3
2.9820548E-3 -3.3353816E-3
-3.1107625E-3 4.99447E-3
4.140619E-3 -6.620908E-3
-4.199715E-3 5.898918E-3
4.184324E-3 -6.4652334E-3
4.2128023E-3 -2.8260082E-3
1.8919072E-3 -5.695574E-3
-8.581543E-4 1.6424162E-3
-2.499718E-3 5.8271107E-3
-3.5889507E-3 3.969441E-3
-3.0246146E-3 2.7997522E-3
3.2175235E-3 -5.202597E-3
3.1030343E-3 -3.820821E-3
6.3796593E-3 4.1155466E-3
-3.3340575E-3 5.722006E-3
-1.3472916E-3 -2.3631118E-3
-3.0617183E-3 5.653721E-3
-3.8442872E-3 6.4965645E-3
-4.160962E-3 6.683727E-3
-3.4275788E-3 3.2624316E-3
4.0741065E-3 -6.5813307E-3
-3.1243418E-3 6.306556E-3
4.1715237E-3 -6.495722E-3
2.1211624E-3 -5.385147E-3
-1.3646968E-3 -4.3355273E-3
4.02409E-3 -6.614396E-3
4.521207E-3 -2.9572172E-3
-1.74372E-4 9.1981306E-4
-3.5089357E-3 4.0160404E-3
3.6519296E-3 -6.2729255E-3
3.3860453E-3 -2.0910983E-3
3.939382E-3 -6.612269E-3
2.287E-3 -6.1436E-3
-4.103274E-3 3.3323534E-3
4.242745E-3 -6.125716E-3
-3.7296247E-3 6.6004614E-3
-2.0161788E-3 3.2707767E-3
4.142746E-3 -6.709127E-3
3.4907102E-3 4.268761E-3
-2.953529E-3 1.8001527E-3
5.0127856E-3 3.65752E-3
-3.7824176E-3 5.8895918E-3
-4.149105E-3 6.667511E-3
4.0826974E-3 -5.6243846E-3
4.128703E-3 -5.637366E-3
2.8408365E-3 -4.3995418E-3
-4.0559527E-3 6.066135E-3
2.5985318E-3 -5.2532246E-3
-6.576038E-4 7.671411E-4
4.5625153E-3 -3.8433599E-3
3.4354217E-3 -4.1359058E-3
5.008642E-3 1.7806478E-3
-3.963433E-3 4.09876E-3
4.1823266E-3 -3.5731466E-3
1.127415E-3 2.4049706E-3
-3.8789648E-3 6.5846415E-3
3.8389296E-3 -4.94586E-3
4.640756E-3 -8.674055E-4
2.6348224E-3 -5.9959963E-3
-6.676303E-3 -4.105909E-3
-5.323848E-3 -2.5010966E-3
3.4631174E-3 -5.492319E-3
-2.9996282E-3 6.0830903E-3
-5.1692626E-3 -3.843817E-3
-9.83044E-4 -2.494715E-4
1.0782488E-3 -5.6988113E-3
-5.8143227E-3 -3.7864977E-3
3.6411171E-3 -6.564425E-3
2.0753418E-3 -5.711268E-3
8.600871E-4 1.3536391E-3
-4.1093873E-3 5.252949E-3
5.9295157E-3 4.2993026E-3
-5.4428484E-3 -3.6842804E-3
-6.1717955E-3 -4.1587674E-3
-3.0367216E-3 -2.4197833E-3
1.0697474E-3 1.3560116E-3
-3.1284727E-3 3.0150905E-3
-1.7757949E-3 -1.9978494E-3
-3.4908508E-3 3.1727285E-3
-1.9248459E-3 1.411818E-3
-1.22669E-3 -2.6997451E-3
-2.6358557E-3 -3.1003174E-3
3.2102694E-3 3.5020453E-3
-2.5628898E-3 -3.236456E-3
1.9175536E-3 3.2039254E-3
1.6769184E-3 2.591235E-3
2.2079998E-3 2.9471694E-3
3.0455259E-3 3.336198E-3
2.729397E-3 3.0908706E-3
-2.4763416E-3 -1.925436E-3
-1.3635191E-3 1.7500538E-3
3.1497686E-3 3.268752E-3
-1.1892321E-4 -2.5365965E-3
1.9350882E-3 1.1188383E-3
-3.103985E-3 -3.4979696E-3
-3.1646066E-3 -3.4252447E-3
-2.956355E-3 -3.4352127E-3
2.9762876E-3 3.4682723E-3
2.421138E-3 -8.920609E-4
1.5262251E-3 -6.4883195E-4
-1.3510971E-3 -2.8307766E-3
-3.2026023E-3 -3.4297977E-3
-3.2067525E-3 2.3540016E-3
-3.2040507E-3 -3.0465107E-3
-3.213165E-3 -3.4974548E-3
-7.447175E-4 2.6564016E-3
1.6603612E-3 0
-1.5961454E-3 -2.7953E-3
-2.5736715E-3 -2.8051762E-3
3.1916834E-3 3.4962625E-3
-2.2197552E-3 -3.2069937E-3
-2.6705477E-3 -1.9205251E-3
1.2685591E-3 2.1746715E-3
2.25283E-3 3.1333573E-3
2.8339154E-3 2.0972616E-3
-2.9699826E-3 -3.4030334E-3
-2.184815E-3 -3.142011E-3
1.7412697E-3 2.4124992E-3
-3.209204E-3 -3.4861795E-3
3.0100902E-3 1.6627951E-3
2.8539465E-3 1.6016779E-3
1.4483734E-3 2.269957E-3
-2.3888987E-3 -2.614079E-3
3.1641019E-3 3.4751093E-3
-2.7361105E-3 -3.3920598E-3
3.066789E-3 3.4751447E-3
9.5324573E-4 2.900417E-3
2.9932014E-3 2.0216594E-3
-8.123572E-4 -7.641249E-4
-2.9706813E-3 -2.395253E-3
-1.717212E-3 -2.7246606E-3
-1.131064E-3 -2.2076017E-3
2.4921629E-3 2.7097594E-3
1.7100292E-3 2.4189288E-3
-3.4213865E-3 3.0283723E-3
-2.774226E-3 -2.8616735E-3
1.5882956E-3 -3.9683736E-4
-2.7788996E-3 -2.6927604E-3
-3.1401876E-3 -3.2831852E-3
-3.1972E-3 -3.4971032E-3
-1.3337191E-3 -2.5162848E-3
3.151972E-3 3.4301355E-3
-3.1470412E-3 -2.8351108E-3
3.0865362E-3 3.4726805E-3
2.7760654E-3 2.1040794E-3
2.73413E-3 -8.6483626E-5
3.1792591E-3 3.4065226E-3
9.791772E-4 3.1004522E-3
-5.0469936E-4 -2.504813E-4
-1.7572154E-3 -2.6858624E-3
3.04184E-3 3.135382E-3
6.6168385E-4 2.3019207E-3
3.1917887E-3 3.3570891E-3
3.1886438E-3 2.3234005E-3
-1.2644648E-3 -2.9192069E-3
2.8605487E-3 3.4538414E-3
-3.2190236E-3 -3.2336176E-3
-1.5678522E-3 -1.69974E-3
3.214879E-3 3.4906738E-3
-3.0408325E-3 1.3293468E-3
-5.6334893E-4 -2.004012E-3
-2.9338987E-3 2.3106858E-3
-2.798501E-3 -3.1487227E-3
-3.1897293E-3 -3.487598E-3
2.5960305E-3 3.2796483E-3
2.596079E-3 3.3084168E-3
2.0879924E-3 2.3610056E-3
-2.856368E-3 -3.3359164E-3
2.6220633E-3 2.359281E-3
-3.3772047E-4 -5.0570903E-4
1.4859823E-3 3.268354E-3
1.8386199E-3 2.6627348E-3
-1.8455856E-3 2.6132022E-3
-1.7313128E-3 -2.9626808E-3
1.3911605E-3 3.0041374E-3
-1.5768313E-3 2.6261935E-4
-3.185594E-3 -3.3175894E-3
2.242431E-3 3.0281516E-3
-2.5128227E-4 2.8302188E-3
3.0466006E-3 2.5009823E-3
3.463994E-3 -3.2018423E-3
2.3142914E-3 -2.6788185E-3
2.6201562E-3 2.899148E-3
-3.0378047E-3 -2.726535E-3
3.067278E-3 -2.371098E-3
3.0427374E-4 -5.2914076E-4
3.1272653E-3 1.5506735E-3
3.1388588E-3 -2.7542196E-3
3.2125192E-3 3.1764735E-3
2.9724955E-3 2.1305084E-3
-9.241587E-4 2.785039E-4
-2.376449E-3 -3.2347708E-3
-3.4547416E-3 2.7376628E-3
3.0192742E-3 -2.5555578E-3
3.412663E-3 -2.9008945E-3
6.993098E-3 -2.786274E-3
-3.3112862E-3 4.9740565E-4
-2.0685766E-3 -8.165417E-3
5.0705923E-3 -1.069057E-3
-1.9856056E-3 -8.92704E-3
-5.2646425E-4 -4.5977873E-3
5.7244003E-3 5.301369E-4
7.7534486E-3 -1.457183E-3
-8.981975E-3 2.038046E-3
7.912501E-3 -1.2034678E-3
-7.237357E-3 1.4828514E-4
-5.9745335E-3 3.3215797E-4
-7.084308E-3 8.8409137E-4
-8.54439E-3 1.9201249E-3
-7.827468E-3 1.6237457E-3
5.622133E-3 -2.318075E-3
-1.635518E-3 -3.977921E-3
-8.531054E-3 2.1604602E-3
4.3848087E-3 2.2382783E-3
-3.7438662E-3 2.18225E-3
8.87294E-3 -1.8630287E-3
8.80878E-3 -2.0350004E-3
8.625365E-3 -1.6748159E-3
-8.7001845E-3 1.676593E-3
-8.2567014E-4 4.9336646E-3
-3.7485655E-4 3.193213E-3
6.0645943E-3 4.4665544E-4
8.852972E-3 -2.0945908E-3
-8.803494E-4 -7.661684E-3
8.209082E-3 -2.4654928E-3
8.9770295E-3 -2.047334E-3
-3.7562677E-3 -3.8074313E-3
-1.5961454E-3 2.7953E-3
6.2404377E-3 0
7.1967845E-3 -1.6362192E-3
-8.954372E-3 2.0123145E-3
7.5330357E-3 -6.541065E-4
5.80056E-3 -2.649751E-3
-4.8806635E-3 4.5117595E-5
-7.4408604E-3 7.805779E-4
-6.2551545E-3 2.7548876E-3
8.58429E-3 -1.7286937E-3
7.390045E-3 -6.577529E-4
-5.735486E-3 6.123196E-4
8.95424E-3 -2.051505E-3
-5.6930697E-3 3.46915E-3
-5.440071E-3 3.265028E-3
-5.213941E-3 2.5624354E-4
6.6974373E-3 -1.5088512E-3
-8.892245E-3 1.986215E-3
8.340988E-3 -1.3455079E-3
-8.798756E-3 1.8223491E-3
-5.799373E-3 -1.1834049E-3
-6.281E-3 3.095732E-3
2.0673806E-3 -6.330715E-4
6.8883137E-3 -2.6986739E-3
6.2378976E-3 -2.7172908E-4
4.803925E-3 2.180185E-4
-6.9577894E-3 1.5907219E-3
-5.716278E-3 5.5354356E-4
-1.8093525E-3 -8.67132E-3
7.4846987E-3 -1.91955E-3
-8.5877156E-4 3.055463E-3
7.204818E-3 -2.0897985E-3
8.546142E-3 -2.130455E-3
8.961091E-3 -2.0207933E-3
5.5184257E-3 1.7358371E-4
-8.80487E-3 2.009028E-3
7.798375E-3 -2.5727383E-3
-8.81359E-3 1.8579639E-3
-6.21102E-3 2.6509406E-3
-2.4827858E-3 4.686182E-3
-8.791347E-3 2.077667E-3
-6.1610714E-3 -1.3320466E-3
9.0687734E-4 -6.088926E-4
6.2110354E-3 -3.7637362E-4
-8.202764E-3 2.106969E-3
-4.51149E-3 -1.0989145E-3
-8.720168E-3 2.1462822E-3
-6.9768797E-3 3.134698E-3
6.130189E-3 6.775154E-4
-8.564627E-3 1.4956136E-3
8.538479E-3 -2.31083E-3
4.36881E-3 -1.0055553E-3
-8.967261E-3 2.056738E-3
6.8520504E-4 -6.397324E-3
3.9154133E-3 9.780793E-4
-1.0697255E-3 -7.1606813E-3
7.991296E-3 -1.6844708E-3
8.9379065E-3 -2.0173544E-3
-8.017075E-3 1.2177402E-3
-8.065555E-3 1.1901658E-3
-5.9821066E-3 1.2455464E-3
8.362075E-3 -1.6019389E-3
-6.4926185E-3 2.1463388E-3
1.1760448E-3 -8.241874E-5
-6.9309454E-3 -6.402232E-4
-6.2503545E-3 5.356557E-4
-2.6252489E-3 -5.6192684E-3
6.6521713E-3 -6.66539E-5
-6.3949693E-3 -5.458625E-4
1.0737135E-3 -2.9071355E-3
8.647714E-3 -2.1738256E-3
-7.2537456E-3 8.6420774E-4
-4.5232484E-3 -3.1438037E-3
-7.139297E-3 2.724847E-3
2.0604378E-3 8.909813E-3
2.2851392E-3 6.4714365E-3
-7.399678E-3 1.6241407E-3
7.5105713E-3 -2.49321E-3
1.0432114E-3 7.4433074E-3
5.983289E-4 1.0209355E-3
-5.616951E-3 3.774205E-3
1.6194033E-3 7.932121E-3
-8.436022E-3 2.3548135E-3
-6.444348E-3 2.9562332E-3
4.1954112E-4 -1.8235992E-3
7.7304337E-3 -8.912055E-4
-1.2878637E-3 -8.448008E-3
1.3999061E-3 7.539816E-3
1.6031237E-3 8.534086E-3
8.795341E-3 -1.3797068E-3
-3.9491584E-3 -2.9457346E-4
-2.4464488E-4 -9.95914E-3
6.1279633E-3 9.660003E-5
5.0736202E-5 -1.0815727E-2
5.983774E-4 -5.440435E-3
6.462665E-3 2.1122964E-3
9.323733E-3 3.5242827E-4
-1.089283E-2 -4.6632017E-6
9.440635E-3 6.8672857E-4
-8.385361E-3 -1.7265978E-3
-6.9772215E-3 -1.1834387E-3
-8.401783E-3 -8.379009E-4
-1.0357268E-2 -2.5922442E-5
-9.452768E-3 -1.7974751E-4
7.0915157E-3 -1.1992177E-3
-8.431654E-4 -5.016363E-3
-1.0404902E-2 2.547405E-4
4.4699125E-3 3.7309744E-3
-4.8897914E-3 1.535052E-3
1.0721196E-2 1.7791313E-4
1.0692296E-2 -3.7235277E-5
1.0386332E-2 3.300567E-4
-1.0473083E-2 -3.476248E-4
-2.2457922E-3 5.4732612E-3
-1.2695517E-3 3.5842867E-3
6.8768817E-3 2.105219E-3
1.0758883E-2 -9.4371084E-5
9.936014E-4 -9.066661E-3
1.0113566E-2 -6.909393E-4
1.0889563E-2 -7.3448473E-6
-3.333622E-3 -5.3757993E-3
-2.5736715E-3 2.8051762E-3
7.1967845E-3 1.6362192E-3
8.728702E-3 0
-1.085425E-2 -2.7100235E-5
8.858977E-3 1.2207855E-3
7.384251E-3 -1.5349402E-3
-5.640454E-3 -1.2276594E-3
-8.785837E-3 -1.0507636E-3
-7.936078E-3 1.5369963E-3
1.0353089E-2 2.571526E-4
8.69503E-3 1.1790887E-3
-6.774997E-3 -7.9766504E-4
1.0864373E-2 -1.8129975E-5
-7.4751307E-3 2.5080957E-3
-7.129839E-3 2.3390271E-3
-6.080163E-3 -1.0715624E-3
8.119434E-3 1.5959777E-5
-1.0775759E-2 -4.0910956E-5
9.972032E-3 6.3526875E-4
-1.0624978E-2 -2.0537601E-4
-6.3778427E-3 -2.8853351E-3
-8.055252E-3 1.9232987E-3
2.5501957E-3 -1.8803029E-4
8.651529E-3 -1.3061558E-3
7.265101E-3 1.3221819E-3
5.4829633E-3 1.5110007E-3
-8.441152E-3 1.0193994E-5
-6.7374343E-3 -8.6041214E-4
1.869517E-4 -1.0474605E-2
9.135027E-3 -2.512616E-4
-1.7915091E-3 3.298546E-3
8.856894E-3 -5.209841E-4
1.0414435E-2 -2.1618148E-4
1.0864222E-2 1.9084162E-5
6.318611E-3 1.6470957E-3
-1.0680974E-2 8.307979E-6
9.668038E-3 -9.2230603E-4
-1.0651424E-2 -1.6819319E-4
-7.857925E-3 1.428691E-3
-4.0919716E-3 4.7533615E-3
-1.0683377E-2 9.10113E-5
-6.755998E-3 -3.1515923E-3
1.2055055E-3 -4.644255E-4
7.2615594E-3 1.1944567E-3
-1.00122765E-2 2.791282E-4
-4.914744E-3 -2.4502184E-3
-1.0619281E-2 1.8880478E-4
-8.867992E-3 1.7857789E-3
6.891998E-3 2.3886568E-3
-1.02693E-2 -5.207963E-4
1.0452892E-2 -4.2620767E-4
5.301983E-3 -1.41711325E-5
-1.0880763E-2 2.0750636E-5
2.4675669E-3 -7.198056E-3
4.259002E-3 2.1545768E-3
6.438426E-4 -8.538533E-3
9.657623E-3 1.5267209E-4
1.0836583E-2 1.697129E-5
-9.564979E-3 -6.9768814E-4
-9.613658E-3 -7.4219913E-4
-7.2254417E-3 -1.3205968E-4
1.0063584E-2 3.4506837E-4
-8.050374E-3 7.7292504E-4
1.3778835E-3 2.1330509E-4
-7.825248E-3 -2.5556053E-3
-7.3486683E-3 -1.0210745E-3
-1.5542171E-3 -7.1687517E-3
7.6890923E-3 1.6673056E-3
-7.2318753E-3 -2.3062527E-3
2.0004997E-3 -3.07113E-3
1.0542944E-2 -2.3956619E-4
-8.591974E-3 -9.052571E-4
-4.3921433E-3 -4.81157E-3
-8.947839E-3 1.2705334E-3
4.0080766E-5 1.081548E-2
9.3855045E-4 8.062338E-3
-8.959522E-3 -6.712693E-5
9.3152765E-3 -9.060507E-4
-7.4852316E-4 8.85752E-3
4.2233727E-4 1.3342734E-3
-7.46733E-3 2.8798587E-3
-2.1219518E-4 9.57232E-3
-1.0346265E-2 5.037961E-4
-8.207057E-3 1.7195921E-3
9.6197653E-4 -1.9930636E-3
9.148793E-3 9.991078E-4
7.298073E-4 -1.0080339E-2
-3.624694E-4 9.062343E-3
-3.8880287E-4 1.0262267E-2
-1.0932833E-2 1.7429901E-3
4.9117426E-3 3.5404455E-4
3.3513986E-4 1.2383557E-2
-7.620499E-3 -1.01097154E-4
-2.9510707E-5 1.3449649E-2
-7.2719867E-4 6.767107E-3
-8.042963E-3 -2.6066022E-3
-1.1595272E-2 -4.0930143E-4
1.3545385E-2 -2.8021492E-5
-1.1741681E-2 -8.246447E-4
1.0432662E-2 2.1210115E-3
8.679937E-3 1.4499585E-3
1.0450325E-2 1.0158547E-3
1.2879473E-2 7.8465376E-8
1.1755192E-2 1.941697E-4
-8.814665E-3 1.5132597E-3
1.0640613E-3 6.2352926E-3
1.2937835E-2 -3.4907783E-4
-5.569976E-3 -4.6256357E-3
6.075751E-3 -1.9240379E-3
-1.33324955E-2 -1.879506E-4
-1.3295888E-2 7.949966E-5
-1.2916559E-2 -3.7818198E-4
1.302449E-2 3.9975916E-4
2.7756772E-3 -6.8130414E-3
1.567575E-3 -4.4610472E-3
-8.558025E-3 -2.5965152E-3
-1.3378514E-2 1.5075557E-4
-1.2074062E-3 1.1277592E-2
-1.2574201E-2 8.9059223E-4
-1.3541285E-2 4.2942516E-5
4.162091E-3 6.674524E-3
3.1916834E-3 -3.4962625E-3
-8.954372E-3 -2.0123145E-3
-1.085425E-2 2.7100235E-5
1.3497481E-2 0
-1.102004E-2 -1.4905569E-3
-9.177643E-3 1.931644E-3
7.0177875E-3 1.5090974E-3
1.0928561E-2 1.2793601E-3
9.8638395E-3 -1.9359137E-3
-1.2874994E-2 -2.8762847E-4
-1.0816039E-2 -1.4392153E-3
8.42727E-3 9.7087206E-4
-1.3509928E-2 5.6276345E-5
9.287631E-3 -3.142057E-3
8.858783E-3 -2.9307462E-3
7.564086E-3 1.3136239E-3
-1.0096668E-2 5.362885E-6
1.33999195E-2 1.7416874E-5
-1.2402319E-2 -7.5900374E-4
1.321293E-2 2.2239976E-4
7.939885E-3 3.5681485E-3
1.0010835E-2 -2.4166557E-3
-3.1706162E-3 2.4173598E-4
-1.075423E-2 1.651082E-3
-9.03835E-3 -1.6215931E-3
-6.822824E-3 -1.8619251E-3
1.0496646E-2 -3.888427E-5
8.380756E-3 1.0490151E-3
-1.9995541E-4 1.3025883E-2
-1.1358741E-2 3.4080888E-4
2.2175226E-3 -4.1073454E-3
-1.1012041E-2 6.753487E-4
-1.2949809E-2 3.0115867E-4
-1.3509856E-2 9.9996605E-6
-7.862386E-3 -2.0285663E-3
1.32819E-2 -4.34934E-5
-1.2019464E-2 1.1769161E-3
1.3245701E-2 1.7607996E-4
9.766993E-3 -1.8009923E-3
5.07366E-3 -5.923569E-3
1.3284631E-2 -1.4634362E-4
8.410952E-3 3.898068E-3
-1.4976193E-3 5.8126176E-4
-9.03355E-3 -1.4627764E-3
1.2449525E-2 -3.7818524E-4
6.119153E-3 3.0316187E-3
1.3204622E-2 -2.6775151E-4
1.1021914E-2 -2.2481713E-3
-8.577703E-3 -2.9489268E-3
1.27716195E-2 6.1573327E-4
-1.2996979E-2 5.62448E-4
-6.593038E-3 3.408345E-5
1.35303E-2 -5.958612E-5
-3.0461021E-3 8.958534E-3
-5.3028124E-3 -2.6660196E-3
-7.7411626E-4 1.0619772E-2
-1.200985E-2 -1.5986447E-4
-1.347548E-2 1.2541044E-5
1.1896338E-2 8.3788665E-4
1.195701E-2 8.93086E-4
8.985338E-3 1.417841E-4
-1.25152655E-2 -3.978516E-4
1.0008342E-2 -9.861366E-4
-1.7140777E-3 -2.6096957E-4
9.738729E-3 3.1536315E-3
9.141332E-3 1.2469027E-3
1.9549457E-3 8.909606E-3
-9.56666E-3 -2.0494426E-3
9.000087E-3 2.845401E-3
-2.4781115E-3 3.8252003E-3
-1.310954E-2 3.3063727E-4
1.0687037E-2 1.0990227E-3
5.476624E-3 5.9696115E-3
1.1122805E-2 -1.6077048E-3
-8.342049E-5 -1.3449061E-2
-1.192131E-3 -1.0022705E-2
1.11414865E-2 5.5656346E-5
-1.1580849E-2 1.1556072E-3
9.032975E-4 -1.1016761E-2
-5.2932434E-4 -1.6578744E-3
9.2767775E-3 -3.6043248E-3
2.341476E-4 -1.1903959E-2
1.2864146E-2 -6.5859896E-4
1.0200239E-2 -2.1638158E-3
-1.1900418E-3 2.4813863E-3
-1.137974E-2 -1.2139981E-3
-8.76227E-4 1.2537293E-2
4.2259868E-4 -1.1270262E-2
4.5161947E-4 -1.2762465E-2
8.733647E-3 -2.630404E-3
-4.0492984E-3 2.5335434E-4
-1.6411688E-3 -1.0073564E-2
6.2329327E-3 -7.590076E-4
-1.4611803E-3 -1.0984246E-2
-1.5358419E-4 -5.605322E-3
6.854543E-3 1.2399624E-3
9.5121795E-3 -9.4631687E-4
-1.1056056E-2 1.5187247E-3
9.6775815E-3 -6.2337733E-4
-8.751993E-3 -5.796014E-4
-7.2468696E-3 -2.2527613E-4
-8.644368E-3 3.246568E-4
-1.0515475E-2 1.4222448E-3
-9.618989E-3 1.1396218E-3
7.0296344E-3 -2.2089265E-3
-1.5573319E-3 -4.973308E-3
-1.0524567E-2 1.7137591E-3
5.058435E-3 3.1615028E-3
-4.748081E-3 2.2418424E-3
1.0906093E-2 -1.318884E-3
1.084667E-2 -1.5332021E-3
1.058751E-2 -1.1176369E-3
-1.0678011E-2 1.1119394E-3
-1.5138272E-3 5.869043E-3
-7.8720576E-4 3.8153396E-3
7.273952E-3 1.1748472E-3
1.090626E-2 -1.6005035E-3
-2.596208E-4 -9.340945E-3
1.0167877E-2 -2.1157218E-3
1.1051062E-2 -1.5304546E-3
-4.135228E-3 -4.989797E-3
-2.2197552E-3 3.2069937E-3
7.5330357E-3 6.541065E-4
8.858977E-3 -1.2207855E-3
-1.102004E-2 1.4905569E-3
9.161935E-3 0
7.2797853E-3 -2.590601E-3
-5.896337E-3 -4.5711553E-4
-9.063924E-3 1.6232983E-4
-7.839561E-3 2.6698655E-3
1.0543574E-2 -1.1869796E-3
8.9897085E-3 -1.9389487E-5
-6.9876737E-3 1.3797202E-4
1.1023987E-2 -1.5378783E-3
-7.2359177E-3 3.5909913E-3
-6.909118E-3 3.3711072E-3
-6.3207764E-3 -2.3719149E-4
8.242848E-3 -1.1193757E-3
-1.0942308E-2 1.4655625E-3
1.0209712E-2 -7.4992573E-4
-1.0812279E-2 1.2775542E-3
-6.876571E-3 -2.0364018E-3
-7.906485E-3 3.0786009E-3
2.5619592E-3 -5.4750376E-4
8.5979765E-3 -2.5356421E-3
7.5584515E-3 3.2582768E-4
5.776122E-3 7.667125E-4
-8.56571E-3 1.190915E-3
-6.9583263E-3 6.90351E-5
-1.2752234E-3 -1.0657083E-2
9.236226E-3 -1.5326253E-3
-1.3569169E-3 3.5983345E-3
8.916218E-3 -1.7674738E-3
1.0539635E-2 -1.6759575E-3
1.10290395E-2 -1.5000873E-3
6.6432767E-3 7.8796543E-4
-1.0839226E-2 1.5022595E-3
9.68334E-3 -2.288231E-3
-1.0833919E-2 1.3189913E-3
-7.775389E-3 2.5490138E-3
-3.4882447E-3 5.396603E-3
-1.0830098E-2 1.5865334E-3
-7.297608E-3 -2.2537445E-3
1.1585436E-3 -6.3995743E-4
7.5369934E-3 1.9669157E-4
-1.0122671E-2 1.6835983E-3
-5.3307805E-3 -1.7994182E-3
-1.0751367E-2 1.6768218E-3
-8.75059E-3 3.0526975E-3
7.3289354E-3 1.4604015E-3
-1.0495406E-2 9.076818E-4
1.0549292E-2 -1.894497E-3
5.379133E-3 -7.559113E-4
-1.1040255E-2 1.5428303E-3
1.4976844E-3 -7.6505975E-3
4.623904E-3 1.591075E-3
-5.4073625E-4 -8.756017E-3
9.823116E-3 -1.1957526E-3
1.1000692E-2 -1.4983659E-3
-9.805313E-3 6.2964484E-4
-9.860945E-3 5.912773E-4
-7.351751E-3 8.765105E-4
1.0262044E-2 -1.0572616E-3
-8.062424E-3 1.9103759E-3
1.428281E-3 2.3779634E-5
-8.299463E-3 -1.4993179E-3
-7.6011526E-3 -8.538091E-6
-2.5800262E-3 -7.058374E-3
8.03704E-3 6.1680336E-4
-7.6623596E-3 -1.3292322E-3
1.600833E-3 -3.3967544E-3
1.0666792E-2 -1.7176645E-3
-8.846817E-3 2.8289453E-4
-5.1306356E-3 -4.269103E-3
-8.903691E-3 2.5409292E-3
1.5533181E-3 1.0971295E-2
2.0801465E-3 8.051404E-3
-9.102631E-3 1.1849382E-3
9.327587E-3 -2.2223962E-3
4.7910676E-4 9.094406E-3
6.152505E-4 1.2951199E-3
-7.176007E-3 3.9672116E-3
1.1234104E-3 9.744864E-3
-1.0430221E-2 1.9583304E-3
-8.089047E-3 2.8930858E-3
6.975866E-4 -2.1573508E-3
9.425073E-3 -2.6551913E-4
-6.691239E-4 -1.0332857E-2
8.995686E-4 9.248292E-3
1.0406615E-3 1.0469809E-2
7.6832464E-3 3.7946345E-4
-3.2890828E-3 -9.4366004E-4
1.5443495E-3 -8.468189E-3
5.167107E-3 1.1593219E-3
1.9448644E-3 -9.140896E-3
1.4629108E-3 -4.4972394E-3
5.095796E-3 2.923405E-3
7.825656E-3 1.9377216E-3
-9.214225E-3 -1.9194465E-3
7.865766E-3 2.2410878E-3
-6.7901714E-3 -2.93522E-3
-5.694437E-3 -2.2281008E-3
-6.9603412E-3 -2.1862935E-3
-8.757416E-3 -1.843253E-3
-7.965182E-3 -1.8143286E-3
6.210116E-3 2.3253499E-4
1.6883067E-4 -4.391981E-3
-8.847067E-3 -1.6141959E-3
3.1253363E-3 3.9423383E-3
-4.406573E-3 4.3874467E-4
9.038561E-3 2.0358297E-3
9.051947E-3 1.8487375E-3
8.728521E-3 2.1056533E-3
-8.798821E-3 -2.1357706E-3
-2.8623524E-3 4.2353114E-3
-1.704303E-3 2.808961E-3
5.4474575E-3 2.990258E-3
9.118325E-3 1.8121116E-3
2.4349312E-3 -7.4954303E-3
8.67731E-3 1.1939519E-3
9.213572E-3 1.9087138E-3
-1.8748225E-3 -5.134E-3
-2.6705477E-3 1.9205251E-3
5.80056E-3 2.649751E-3
7.384251E-3 1.5349402E-3
-9.177643E-3 -1.931644E-3
7.2797853E-3 2.590601E-3
6.5167993E-3 0
-4.555791E-3 -2.0304401E-3
-7.247809E-3 -2.433906E-3
-6.9839912E-3 -9.529946E-5
8.713218E-3 2.0381329E-3
7.1484223E-3 2.5264965E-3
-5.5911983E-3 -1.8661855E-3
9.19416E-3 1.8951597E-3
-6.76481E-3 8.072825E-4
-6.442973E-3 7.2497415E-4
-4.955223E-3 -1.975709E-3
6.866019E-3 1.4413024E-3
-9.108813E-3 -1.9295247E-3
8.324362E-3 2.291E-3
-8.952334E-3 -2.042143E-3
-4.8881E-3 -3.5624593E-3
-7.1527413E-3 2.1054517E-4
2.190463E-3 2.8938256E-4
7.5486517E-3 4.1639624E-4
5.9135775E-3 2.3960974E-3
4.372732E-3 2.2424445E-3
-7.142783E-3 -1.4757506E-3
-5.5483878E-3 -1.9126623E-3
2.0001126E-3 -8.8283615E-3
7.7721756E-3 1.3938319E-3
-2.0956178E-3 2.4754456E-3
7.5843125E-3 1.1167441E-3
8.848351E-3 1.6484922E-3
9.187488E-3 1.9266157E-3
5.055736E-3 2.504526E-3
-9.037282E-3 -1.8712184E-3
8.341091E-3 9.198757E-4
-8.981245E-3 -2.0153373E-3
-6.8988316E-3 -1.731798E-4
-4.2975773E-3 3.3016456E-3
-9.053858E-3 -1.8016761E-3
-5.1611876E-3 -3.854204E-3
1.1014948E-3 -1.809038E-4
5.9330417E-3 2.2874225E-3
-8.519205E-3 -1.5245214E-3
-3.7268726E-3 -2.9370768E-3
-9.016831E-3 -1.7076746E-3
-7.816114E-3 -4.8712773E-5
5.4104025E-3 3.2326968E-3
-8.595972E-3 -2.2464339E-3
8.917817E-3 1.4775783E-3
4.487829E-3 9.2036393E-4
-9.2084855E-3 -1.8958253E-3
3.3532728E-3 -5.6554433E-3
3.224121E-3 2.5716594E-3
2.0461727E-3 -7.110153E-3
8.143246E-3 1.8274469E-3
9.164477E-3 1.9199682E-3
-7.96903E-3 -2.2722252E-3
-8.002384E-3 -2.3184407E-3
-6.089309E-3 -1.3823112E-3
8.452845E-3 2.0615975E-3
-6.9463216E-3 -7.6178234E-4
1.1281432E-3 4.2275095E-4
-6.17055E-3 -3.538042E-3
-6.037223E-3 -2.1560632E-3
-5.4203112E-5 -6.337882E-3
6.2115733E-3 2.7626215E-3
-5.71242E-3 -3.2227521E-3
2.2324275E-3 -2.2463072E-3
8.961179E-3 1.6513076E-3
-7.109393E-3 -2.2767202E-3
-2.869523E-3 -4.842818E-3
-7.7930577E-3 -4.9863814E-4
-1.8679928E-3 9.156657E-3
-6.237719E-4 6.9855684E-3
-7.5677135E-3 -1.6323179E-3
8.039805E-3 8.7159424E-4
-2.190824E-3 7.3615992E-3
1.2265446E-4 1.2030279E-3
-6.823586E-3 1.1231555E-3
-1.8628018E-3 8.060615E-3
-8.841258E-3 -1.3931906E-3
-7.245342E-3 1.1520385E-5
1.1642864E-3 -1.5169156E-3
7.563943E-3 2.4540317E-3
2.3900226E-3 -8.399363E-3
-1.9002503E-3 7.602761E-3
-2.1335343E-3 8.613235E-3
-5.489465E-3 2.1285932E-3
2.5933618E-3 -3.6508223E-4
1.5588047E-3 6.4011505E-3
-3.973453E-3 7.9945265E-4
1.4884061E-3 6.996217E-3
3.7850766E-4 3.5997478E-3
-4.473236E-3 -4.5600827E-4
-6.074528E-3 1.0836101E-3
7.039561E-3 -1.5290229E-3
-6.1970893E-3 8.840288E-4
5.661428E-3 -6.3649044E-5
4.6751E-3 -2.165866E-4
5.547048E-3 -6.4023136E-4
6.696473E-3 -1.4399599E-3
6.1336234E-3 -1.2133443E-3
-4.413844E-3 1.7723251E-3
1.250383E-3 3.1229667E-3
6.6877794E-3 -1.6280231E-3
-3.4131878E-3 -1.782265E-3
2.9438653E-3 -1.6796757E-3
-6.9530196E-3 1.3929295E-3
-6.9040833E-3 1.5278929E-3
-6.7580296E-3 1.2475176E-3
6.8165585E-3 -1.2483663E-3
6.8142853E-4 -3.8526629E-3
3.1626274E-4 -2.4947103E-3
-4.7399057E-3 -3.931766E-4
-6.9390764E-3 1.5741794E-3
6.3313066E-4 5.998588E-3
-6.4381696E-3 1.8689178E-3
-7.035761E-3 1.5363226E-3
2.9102599E-3 3.0049593E-3
1.2685591E-3 -2.1746715E-3
-4.8806635E-3 -4.5117595E-5
-5.640454E-3 1.2276594E-3
7.0177875E-3 -1.5090974E-3
-5.896337E-3 4.5711553E-4
-4.555791E-3 2.0304401E-3
3.817506E-3 0
5.8251605E-3 -5.566956E-4
4.9120905E-3 -2.1093811E-3
-6.7262943E-3 1.2899523E-3
-5.7845293E-3 4.6100098E-4
4.4901655E-3 -4.3742984E-4
-7.0179664E-3 1.5397491E-3
4.4776467E-3 -2.672071E-3
4.2783E-3 -2.514256E-3
4.0796897E-3 -1.627126E-4
-5.248992E-3 1.131655E-3
6.9690086E-3 -1.4891339E-3
-6.533237E-3 9.920207E-4
6.894705E-3 -1.3616502E-3
4.5271493E-3 9.6747273E-4
4.934768E-3 -2.375769E-3
-1.6214808E-3 4.8018002E-4
-5.4068794E-3 2.060838E-3
-4.8806407E-3 1.6742053E-4
-3.7555865E-3 -2.0524459E-4
5.4532066E-3 -1.193804E-3
4.474718E-3 -3.9159998E-4
1.3524067E-3 6.7949435E-3
-5.867681E-3 1.447172E-3
6.937381E-4 -2.383477E-3
-5.6500165E-3 1.5823471E-3
-6.699363E-3 1.604447E-3
-7.0231035E-3 1.5156802E-3
-4.31472E-3 -1.7565777E-4
6.9008367E-3 -1.507608E-3
-6.1177304E-3 1.9557641E-3
6.906565E-3 -1.3893973E-3
4.876821E-3 -2.0284024E-3
1.975674E-3 -3.6471246E-3
6.8907565E-3 -1.5613885E-3
4.8089596E-3 1.086341E-3
-7.136733E-4 4.696598E-4
-4.860388E-3 2.494579E-4
6.430636E-3 -1.5885611E-3
3.520503E-3 8.9208153E-4
6.8355845E-3 -1.6155672E-3
5.4792995E-3 -2.4012134E-3
-4.7895387E-3 -5.742072E-4
6.70923E-3 -1.107802E-3
-6.6946745E-3 1.745574E-3
-3.424128E-3 7.5486157E-4
7.0281886E-3 -1.5437478E-3
-5.8215257E-4 4.99841E-3
-3.055184E-3 -7.932664E-4
7.848644E-4 5.6081214E-3
-6.262192E-3 1.2596527E-3
-7.004945E-3 1.5131581E-3
6.27898E-3 -8.944354E-4
6.316697E-3 -8.72519E-4
4.687627E-3 -9.3089516E-4
-6.551583E-3 1.1924237E-3
5.0934115E-3 -1.6317164E-3
-9.2038367E-4 5.5957225E-5
5.416082E-3 5.508302E-4
4.892292E-3 -3.7374868E-4
2.0125874E-3 4.413825E-3
-5.203163E-3 4.035885E-6
4.9975757E-3 4.7315517E-4
-8.607723E-4 2.2659155E-3
-6.779116E-3 1.6376328E-3
5.6794216E-3 -6.234552E-4
3.5149152E-3 2.4914797E-3
5.6033637E-3 -2.0794938E-3
-1.5470567E-3 -6.983285E-3
-1.7404256E-3 -5.0778487E-3
5.79905E-3 -1.2167459E-3
-5.892063E-3 1.8956453E-3
-7.620842E-4 -5.828973E-3
-4.6057338E-4 -8.028022E-4
4.420319E-3 -2.9112059E-3
-1.2091915E-3 -6.215441E-3
6.61486E-3 -1.7807143E-3
5.0615147E-3 -2.2654857E-3
-3.4130857E-4 1.4232085E-3
-6.052436E-3 6.4112415E-4
9.461636E-4 6.616521E-3
-1.0403582E-3 -5.9070317E-3
-1.1921069E-3 -6.686121E-3
-8.686822E-3 2.4475234E-3
4.010469E-3 -1.7889924E-4
1.4451307E-3 9.994879E-3
-6.1797034E-3 6.404537E-4
1.2509316E-3 1.0892629E-2
5.2627096E-5 5.548079E-3
-6.759246E-3 -1.3481454E-3
-9.427188E-3 7.676585E-4
1.0964692E-2 -1.3065889E-3
-9.5851E-3 4.4524265E-4
8.6480975E-3 7.284669E-4
7.165354E-3 3.512655E-4
8.557646E-3 -1.6802405E-4
1.0428183E-2 -1.2207185E-3
9.536279E-3 -9.570028E-4
-6.9935713E-3 2.0607463E-3
1.4525558E-3 4.9476977E-3
1.0442342E-2 -1.508953E-3
-4.9483064E-3 -3.217307E-3
4.7370084E-3 -2.1337345E-3
-1.0812791E-2 1.111543E-3
-1.07578E-2 1.3246208E-3
-1.049405E-2 9.180929E-4
1.0583484E-2 -9.1085257E-4
1.6016193E-3 -5.7794363E-3
8.463841E-4 -3.7605774E-3
-7.175322E-3 -1.2911578E-3
-1.0817946E-2 1.3901468E-3
9.134183E-5 9.245618E-3
-1.009659E-2 1.9129363E-3
-1.0959958E-2 1.3182814E-3
4.0025823E-3 5.009685E-3
2.25283E-3 -3.1333573E-3
-7.4408604E-3 -7.805779E-4
-8.785837E-3 1.0507636E-3
1.0928561E-2 -1.2793601E-3
-9.063924E-3 -1.6232983E-4
-7.247809E-3 2.433906E-3
5.8251605E-3 5.566956E-4
8.969837E-3 0
7.8030005E-3 -2.5024044E-3
-1.0451813E-2 9.874721E-4
-8.893883E-3 -1.4009608E-4
6.9153663E-3 -1.2689844E-5
-1.0933304E-2 1.3261052E-3
7.222135E-3 -3.4243714E-3
6.894936E-3 -3.2126298E-3
6.248957E-3 3.466446E-4
-8.174502E-3 9.613554E-4
1.0851219E-2 -1.2560104E-3
-1.0113779E-2 5.6100916E-4
1.0719247E-2 -1.0723176E-3
6.766927E-3 2.136455E-3
7.876451E-3 -2.9055811E-3
-2.544253E-3 4.962545E-4
-8.550923E-3 2.356179E-3
-7.471821E-3 -4.5626092E-4
-5.7007475E-3 -8.608506E-4
8.495177E-3 -1.0264093E-3
6.885112E-3 5.49898E-5
1.0727608E-3 1.0565672E-2
-9.164575E-3 1.3525834E-3
1.4061556E-3 -3.5357992E-3
-8.852152E-3 1.5905896E-3
-1.045658E-2 1.4712893E-3
-1.0937633E-2 1.2886296E-3
-6.558249E-3 -8.972408E-4
1.0749889E-2 -1.2941418E-3
-9.620295E-3 2.0921847E-3
1.0741391E-2 -1.1129273E-3
7.7373744E-3 -2.3839818E-3
3.5465453E-3 -5.2770684E-3
1.07423505E-2 -1.3776752E-3
7.179609E-3 2.3589323E-3
-1.1574887E-3 6.125846E-4
-7.45288E-3 -3.2812636E-4
1.00442115E-2 -1.4862359E-3
5.241872E-3 1.8746186E-3
1.0666062E-2 -1.4683926E-3
8.711065E-3 -2.8649992E-3
-7.224658E-3 -1.5746314E-3
1.0399212E-2 -7.120156E-4
-1.0470006E-2 1.6873195E-3
-5.3349817E-3 6.525183E-4
1.0949487E-2 -1.330716E-3
-1.6172144E-3 7.5422176E-3
-4.5462484E-3 -1.6559797E-3
3.798143E-4 8.671929E-3
-9.739217E-3 1.0089164E-3
-1.0909558E-2 1.2874287E-3
9.711576E-3 -4.4918014E-4
9.765933E-3 -4.1023732E-4
7.2886343E-3 -7.368769E-4
-1.0170996E-2 8.641307E-4
8.010023E-3 -1.7470906E-3
-1.4125804E-3 -4.8831283E-5
8.184114E-3 1.6303274E-3
7.519687E-3 1.4312289E-4
2.427367E-3 7.0285783E-3
-7.940134E-3 -7.526035E-4
7.55684E-3 1.4507732E-3
-1.643891E-3 3.3320535E-3
-1.0583115E-2 1.5102972E-3
8.757189E-3 -1.2312194E-4
5.0001107E-3 4.3143374E-3
8.853461E-3 -2.3559933E-3
-1.3423137E-3 -1.0881449E-2
-1.9152405E-3 -8.002128E-3
9.026248E-3 -1.0109834E-3
-9.267179E-3 2.0333568E-3
-3.12848E-4 -9.005606E-3
-5.85722E-4 -1.2921661E-3
7.1695307E-3 -3.7976285E-3
-9.3873503E-4 -9.660521E-3
1.035334E-2 -1.7525799E-3
8.053773E-3 -2.718816E-3
-7.283476E-4 2.1219125E-3
-9.32895E-3 9.568711E-5
4.7889006E-4 1.0234175E-2
-7.260857E-4 -9.165295E-3
-8.4402686E-4 -1.0376244E-2
-8.239611E-3 -2.9431022E-4
3.5386784E-3 9.632129E-4
-1.5312291E-3 9.097862E-3
-5.5544935E-3 -1.1668721E-3
-1.9506193E-3 9.824652E-3
-1.5020214E-3 4.8410418E-3
-5.5038673E-3 -3.0584664E-3
-8.415017E-3 -1.9621982E-3
9.9028675E-3 1.9223071E-3
-8.46244E-3 -2.2867266E-3
7.3198867E-3 3.0463499E-3
6.135257E-3 2.3045607E-3
7.4913036E-3 2.2412445E-3
9.412195E-3 1.8473315E-3
8.562743E-3 1.8279187E-3
-6.6587226E-3 -1.583909E-4
-1.16707495E-4 4.709313E-3
9.504923E-3 1.6005416E-3
-3.4070446E-3 -4.1792635E-3
4.7160657E-3 -5.346387E-4
-9.7163115E-3 -2.049603E-3
-9.7279195E-3 -1.8489021E-3
-9.385066E-3 -2.1289657E-3
9.460846E-3 2.1602141E-3
3.00562E-3 -4.5808014E-3
1.7854081E-3 -3.0352601E-3
-5.881717E-3 -3.1249688E-3
-9.798522E-3 -1.8086794E-3
-2.499882E-3 8.068389E-3
-9.31685E-3 -1.1526531E-3
-9.902012E-3 -1.9108145E-3
2.0843071E-3 5.4746424E-3
2.8339154E-3 -2.0972616E-3
-6.2551545E-3 -2.7548876E-3
-7.936078E-3 -1.5369963E-3
9.8638395E-3 1.9359137E-3
-7.839561E-3 -2.6698655E-3
-6.9839912E-3 9.529946E-5
4.9120905E-3 2.1093811E-3
7.8030005E-3 2.5024044E-3
7.4860714E-3 0
-9.367678E-3 -2.056828E-3
-7.6978425E-3 -2.6030866E-3
6.0193245E-3 1.9182091E-3
-9.8810075E-3 -1.8965729E-3
7.2379773E-3 -9.6408295E-4
6.894271E-3 -8.71168E-4
5.339357E-3 2.044885E-3
-7.379325E-3 -1.4442236E-3
9.790045E-3 1.934649E-3
-8.954643E-3 -2.3335104E-3
9.623994E-3 2.057629E-3
5.2906265E-3 3.7463715E-3
7.662446E-3 -3.3023863E-4
-2.35173E-3 -2.7809595E-4
-8.095907E-3 -3.3585908E-4
-6.3725645E-3 -2.4813963E-3
-4.7190078E-3 -2.3392614E-3
7.676434E-3 1.4770943E-3
5.974124E-3 1.9686446E-3
-2.014399E-3 9.490521E-3
-8.349749E-3 -1.3800988E-3
2.2096536E-3 -2.6835576E-3
-8.144367E-3 -1.0858937E-3
-9.5068E-3 -1.6372781E-3
-9.874318E-3 -1.9303808E-3
-5.45481E-3 -2.610143E-3
9.712534E-3 1.8732089E-3
-8.95252E-3 -8.638453E-4
9.654587E-3 2.0284792E-3
7.395944E-3 8.470866E-5
4.55739E-3 -3.6011885E-3
9.729281E-3 1.7984387E-3
5.5875587E-3 4.0550386E-3
-1.1778162E-3 2.0998073E-4
-6.3918354E-3 -2.3646462E-3
9.152246E-3 1.5092331E-3
4.037005E-3 3.0931365E-3
9.688226E-3 1.6982392E-3
8.377168E-3 -6.209498E-5
-5.8455514E-3 -3.3853308E-3
9.245074E-3 2.2817773E-3
-9.578748E-3 -1.4530955E-3
-4.8230225E-3 -9.2071685E-4
9.896371E-3 1.8970761E-3
-3.5109671E-3 6.1099217E-3
-3.4928669E-3 -2.7088742E-3
-2.0888876E-3 7.6498054E-3
-8.7537635E-3 -1.8393736E-3
-9.8495595E-3 -1.9235935E-3
8.573563E-3 2.3185858E-3
8.609984E-3 2.3676269E-3
6.5460694E-3 1.3923618E-3
-9.088983E-3 -2.0857833E-3
7.455447E-3 7.148141E-4
-1.2152026E-3 -4.3656063E-4
6.664659E-3 3.7014503E-3
6.5015643E-3 2.2223466E-3
1.5077204E-4 6.7914557E-3
-6.697284E-3 -2.8698393E-3
6.169075E-3 3.3702564E-3
-2.3596222E-3 2.4399923E-3
-9.6277585E-3 -1.6386454E-3
7.652363E-3 2.3359742E-3
3.1460603E-3 5.148039E-3
8.359038E-3 4.204228E-4
1.8680062E-3 -9.8404195E-3
5.663357E-4 -7.4954894E-3
8.134117E-3 1.6386716E-3
-8.628929E-3 -8.165079E-4
2.2402313E-3 -7.921394E-3
-1.4904031E-4 -1.2874799E-3
7.2963475E-3 -1.3034608E-3
1.8784713E-3 -8.665725E-3
9.495466E-3 1.3637774E-3
7.7645956E-3 -1.1829977E-4
-1.2255718E-3 1.6426902E-3
-8.142093E-3 -2.51935E-3
-2.4385352E-3 9.036468E-3
1.9253001E-3 -8.175597E-3
2.1605317E-3 -9.261922E-3
1.0391481E-2 -1.8955817E-3
-4.692764E-3 -2.3304828E-4
-5.835747E-4 -1.1805301E-2
7.2712055E-3 -6.5956454E-5
-2.5845968E-4 -1.2829997E-2
5.4945546E-4 -6.4705135E-3
7.727578E-3 2.3149955E-3
1.1069235E-2 1.4333226E-4
-1.2920093E-2 3.1537798E-4
1.1217743E-2 5.364003E-4
-9.996721E-3 -1.8008752E-3
-8.310527E-3 -1.1981204E-3
-9.990017E-3 -7.463102E-4
-1.22854905E-2 2.7438448E-4
-1.12171965E-2 6.528604E-5
8.375897E-3 -1.6313088E-3
-1.1478609E-3 -5.925054E-3
-1.233372E-2 6.086812E-4
5.411667E-3 4.293612E-3
-5.7545444E-3 1.9647768E-3
1.2721623E-2 -1.0482975E-4
1.2681005E-2 -3.5916572E-4
1.2328923E-2 8.549189E-5
-1.2432336E-2 -1.0377351E-4
-2.5024822E-3 6.557982E-3
-1.4002165E-3 4.288714E-3
8.218671E-3 2.2943974E-3
1.2758302E-2 -4.2889625E-4
9.1139897E-4 -1.0783213E-2
1.1975317E-2 -1.1174727E-3
1.2915864E-2 -3.295245E-4
-4.1123736E-3 -6.27801E-3
-2.9699826E-3 3.4030334E-3
8.58429E-3 1.7286937E-3
1.0353089E-2 -2.571526E-4
-1.2874994E-2 2.8762847E-4
1.0543574E-2 1.1869796E-3
8.713218E-3 -2.0381329E-3
-6.7262943E-3 -1.2899523E-3
-1.0451813E-2 -9.874721E-4
-9.367678E-3 2.056828E-3
1.2287346E-2 0
1.0347887E-2 1.142353E-3
-8.059303E-3 -7.4651313E-4
1.2885668E-2 -3.4157484E-4
-8.792342E-3 3.195067E-3
-8.387773E-3 2.984363E-3
-7.2432337E-3 -1.0918523E-3
9.630907E-3 -2.2027346E-4
-1.2782303E-2 2.689358E-4
1.1846514E-2 4.5970874E-4
-1.2608306E-2 6.9421534E-5
-7.6497444E-3 -3.234393E-3
-9.49765E-3 2.518531E-3
3.01924E-3 -2.9815247E-4
1.0223075E-2 -1.8041065E-3
8.656068E-3 1.3542019E-3
6.5478417E-3 1.630663E-3
-1.0011726E-2 2.6077256E-4
-8.0166E-3 -8.22044E-4
-8.684532E-5 -1.2429407E-2
1.0827627E-2 -5.671437E-4
-2.0277267E-3 3.9651752E-3
1.0489789E-2 -8.788667E-4
1.2346162E-2 -5.6322734E-4
1.2886586E-2 -2.9743055E-4
7.543011E-3 1.7674658E-3
-1.2668429E-2 3.2452223E-4
1.1440061E-2 -1.3787705E-3
-1.2638579E-2 1.1430373E-4
-9.278173E-3 1.9260653E-3
-4.71344E-3 5.7585007E-3
-1.2668842E-2 4.226869E-4
-8.106117E-3 -3.5390593E-3
1.4161646E-3 -5.8636867E-4
8.648105E-3 1.2028121E-3
-1.186731E-2 6.260403E-4
-5.901549E-3 -2.7614066E-3
-1.2589937E-2 5.36791E-4
-1.0465691E-2 2.379363E-3
8.244951E-3 2.6301371E-3
-1.219573E-2 -3.1517592E-4
1.2385589E-2 -8.1347174E-4
6.2882495E-3 -1.7300782E-4
-1.2905031E-2 3.4516596E-4
2.7147154E-3 -8.61029E-3
5.1150653E-3 2.4300644E-3
5.121102E-4 -1.0146498E-2
1.14593785E-2 -1.0343567E-4
1.285374E-2 -2.991218E-4
-1.136555E-2 -5.4573605E-4
-1.1424599E-2 -5.9709675E-4
-8.573966E-3 5.6229997E-5
1.1946556E-2 1.12805574E-4
-9.5257545E-3 1.153933E-3
1.6405878E-3 2.1240737E-4
-9.356795E-3 -2.8006597E-3
-8.746316E-3 -9.945974E-4
-2.0546478E-3 -8.457048E-3
9.169131E-3 1.7510611E-3
-8.64565E-3 -2.5223843E-3
2.28231E-3 -3.701595E-3
1.2497899E-2 -5.947501E-4
-1.0217585E-2 -8.205987E-4
-5.35126E-3 -5.577595E-3
-1.0575576E-2 1.7705843E-3
3.6616987E-4 1.2827029E-2
1.3507331E-3 9.535067E-3
-1.0628842E-2 1.8433348E-4
1.102213E-2 -1.3490976E-3
-6.2687416E-4 1.0527932E-2
5.4024154E-4 1.5701357E-3
-8.772138E-3 3.6357841E-3
3.0321788E-5 1.1359952E-2
-1.2256834E-2 9.0235757E-4
-9.683707E-3 2.2813883E-3
1.0822808E-3 -2.3923074E-3
1.0880792E-2 9.1551046E-4
5.6864956E-4 -1.1977762E-2
-1.629421E-4 1.0759498E-2
-1.5882571E-4 1.21835E-2
8.575038E-3 -2.5624742E-3
-3.9737155E-3 2.4002214E-4
-1.5889992E-3 -9.887674E-3
6.1173723E-3 -7.315488E-4
-1.4104669E-3 -1.0780856E-2
-1.3883453E-4 -5.5002775E-3
6.723067E-3 1.2311597E-3
9.335371E-3 -9.0839696E-4
-1.0851438E-2 1.4667778E-3
9.496981E-3 -5.911785E-4
-8.586246E-3 -5.872276E-4
-7.110166E-3 -2.3637839E-4
-8.482558E-3 3.0025936E-4
-1.0320815E-2 1.3732555E-3
-9.440582E-3 1.0978425E-3
6.902166E-3 -2.152526E-3
-1.5175318E-3 -4.883115E-3
-1.0330352E-2 1.6592704E-3
4.9566557E-3 3.112778E-3
-4.663571E-3 2.1896518E-3
1.0703871E-2 -1.2710111E-3
1.0646018E-2 -1.481426E-3
1.039085E-2 -1.0742211E-3
-1.0479639E-2 1.0684386E-3
-1.4977909E-3 5.755513E-3
-7.8048225E-4 3.741953E-3
7.1347295E-3 1.1681562E-3
1.0704632E-2 -1.5473361E-3
-2.349721E-4 -9.165903E-3
9.981218E-3 -2.0544322E-3
1.0846562E-2 -1.4782979E-3
-4.046934E-3 -4.90475E-3
-2.184815E-3 3.142011E-3
7.390045E-3 6.577529E-4
8.69503E-3 -1.1790887E-3
-1.0816039E-2 1.4392153E-3
8.9897085E-3 1.9389487E-5
7.1484223E-3 -2.5264965E-3
-5.7845293E-3 -4.6100098E-4
-8.893883E-3 1.4009608E-4
-7.6978425E-3 2.6030866E-3
1.0347887E-2 -1.142353E-3
8.820761E-3 0
-6.8566105E-3 1.20590514E-4
1.08200135E-2 -1.4856387E-3
-7.107496E-3 3.508174E-3
-6.7863753E-3 3.2931152E-3
-6.2014563E-3 -2.461095E-4
8.090268E-3 -1.0808895E-3
-1.0739717E-2 1.4148556E-3
1.0019376E-2 -7.1422156E-4
-1.0611732E-2 1.2306568E-3
-6.742995E-3 -2.0126742E-3
-7.7643744E-3 3.0039968E-3
2.5149581E-3 -5.3178996E-4
8.441717E-3 -2.469781E-3
7.415678E-3 3.3569869E-4
5.66592E-3 7.645236E-4
-8.407212E-3 1.1504005E-3
-6.8276697E-3 5.3011496E-5
-1.228698E-3 -1.045945E-2
9.065846E-3 -1.4842678E-3
-1.3390245E-3 3.5278213E-3
8.752352E-3 -1.7153788E-3
1.0345057E-2 -1.6221477E-3
1.082489E-2 -1.4485482E-3
6.5167286E-3 7.872127E-4
-1.0638649E-2 1.4510814E-3
9.506155E-3 -2.2247236E-3
-1.0633053E-2 1.2712688E-3
-7.634621E-3 2.484642E-3
-3.4340934E-3 5.2877753E-3
-1.062987E-2 1.5337896E-3
-7.1556573E-3 -2.2268223E-3
1.1381196E-3 -6.254757E-4
7.3948964E-3 2.0894477E-4
-9.935947E-3 1.6305277E-3
-5.2267644E-3 -1.7768742E-3
-1.0552811E-2 1.6225477E-3
-8.592556E-3 2.9767938E-3
7.188075E-3 1.4484589E-3
-1.0300034E-2 8.6840766E-4
1.0354996E-2 -1.8365582E-3
5.279615E-3 -7.3031755E-4
-1.0835986E-2 1.4904637E-3
1.4857217E-3 -7.503611E-3
4.5336164E-3 1.5709515E-3
-5.120415E-4 -8.592566E-3
9.640991E-3 -1.1524861E-3
1.079707E-2 -1.4469187E-3
-9.622326E-3 5.970581E-4
-9.67683E-3 5.592939E-4
-7.215407E-3 8.444755E-4
1.0071375E-2 -1.0156697E-3
-7.91491E-3 1.857402E-3
1.4013817E-3 2.6355321E-5
-8.140276E-3 -1.4886983E-3
-7.458248E-3 -2.4464123E-5
-2.5165894E-3 -6.9311503E-3
7.884653E-3 6.2221725E-4
-7.515509E-3 -1.3204612E-3
1.5779288E-3 -3.3295138E-3
1.0469912E-2 -1.6628022E-3
-8.681112E-3 2.5885404E-4
-5.025155E-3 -4.1997097E-3
-8.741695E-3 2.4743218E-3
1.5009E-3 1.0768343E-2
2.0240045E-3 7.904456E-3
-8.934026E-3 1.1434E-3
9.15695E-3 -2.1608796E-3
4.5085352E-4 8.924462E-3
6.009441E-4 1.2720762E-3
-7.049508E-3 3.8774493E-3
1.0816697E-3 9.564056E-3
-1.0238299E-2 1.8994439E-3
-7.9431115E-3 2.8215826E-3
6.890389E-4 -2.1153204E-3
9.248462E-3 -2.4058176E-4
-6.346784E-4 -1.0140035E-2
8.6308626E-4 9.076347E-3
9.989423E-4 1.0275198E-2
-6.7006364E-3 1.8746483E-3
3.0921556E-3 -1.3225015E-4
1.0999945E-3 7.7076745E-3
-4.7651967E-3 4.8502054E-4
9.4900583E-4 8.3995275E-3
3.272413E-5 4.2774095E-3
-5.2091866E-3 -1.0489258E-3
-7.2690505E-3 5.784954E-4
8.455164E-3 -9.918126E-4
-7.390338E-3 3.2970338E-4
6.666288E-3 5.738521E-4
5.523689E-3 2.8094774E-4
6.5978216E-3 -1.1743279E-4
8.041416E-3 -9.2636957E-4
7.353423E-3 -7.24318E-4
-5.3946646E-3 1.5788547E-3
1.1128597E-3 3.816522E-3
8.052741E-3 -1.1485665E-3
-3.810384E-3 -2.4874082E-3
3.6550523E-3 -1.6383178E-3
-8.337778E-3 8.416558E-4
-8.295685E-3 1.0060074E-3
-8.091769E-3 6.9296476E-4
8.1607085E-3 -6.872567E-4
1.2429574E-3 -4.4534355E-3
6.578465E-4 -2.898049E-3
-5.530044E-3 -1.0055794E-3
-8.342148E-3 1.0564399E-3
5.7340712E-5 7.1281116E-3
-7.7867513E-3 1.4605093E-3
-8.451531E-3 1.0008345E-3
3.0787352E-3 3.8679184E-3
1.7412697E-3 -2.4124992E-3
-5.735486E-3 -6.123196E-4
-6.774997E-3 7.9766504E-4
8.42727E-3 -9.7087206E-4
-6.9876737E-3 -1.3797202E-4
-5.5911983E-3 1.8661855E-3
4.4901655E-3 4.3742984E-4
6.9153663E-3 1.2689844E-5
6.0193245E-3 -1.9182091E-3
-8.059303E-3 7.4651313E-4
-6.8566105E-3 -1.20590514E-4
5.331474E-3 0
-8.430994E-3 1.0069035E-3
5.572806E-3 -2.6298289E-3
5.3202505E-3 -2.467048E-3
4.8171915E-3 2.7608898E-4
-6.3035567E-3 7.2959997E-4
8.367608E-3 -9.529799E-4
-7.798091E-3 4.1820624E-4
8.265605E-3 -8.115467E-4
5.2139927E-3 1.65669E-3
6.0765226E-3 -2.2289378E-3
-1.9622138E-3 3.789919E-4
-6.595735E-3 1.8044175E-3
-5.7598134E-3 -3.6232872E-4
-4.393818E-3 -6.717446E-4
6.550876E-3 -7.7930006E-4
5.3080535E-3 5.2135365E-5
8.121057E-4 8.147206E-3
-7.067414E-3 1.0298195E-3
1.0890889E-3 -2.723963E-3
-6.8268855E-3 1.2137543E-3
-8.063664E-3 1.1195086E-3
-8.434277E-3 9.780051E-4
-5.054864E-3 -7.0101273E-4
8.289541E-3 -9.825203E-4
-7.419802E-3 1.5993763E-3
8.282734E-3 -8.428243E-4
5.968562E-3 -1.8270033E-3
2.7417024E-3 -4.0633795E-3
8.283848E-3 -1.0469323E-3
5.531839E-3 1.8287946E-3
-8.9324155E-4 4.7063932E-4
-5.7453923E-3 -2.635156E-4
7.7457665E-3 -1.1316157E-3
4.0386105E-3 1.4526676E-3
8.2251625E-3 -1.1169795E-3
6.7199185E-3 -2.1964698E-3
-5.567679E-3 -1.2241954E-3
8.018361E-3 -5.34222E-4
-8.07432E-3 1.2860403E-3
-4.113969E-3 4.955166E-4
8.443475E-3 -1.0104353E-3
-1.2574744E-3 5.8124443E-3
-3.502623E-3 -1.2831223E-3
2.8055237E-4 6.6862293E-3
-7.5099533E-3 7.640538E-4
-8.41263E-3 9.771192E-4
7.487851E-3 -3.3255987E-4
7.529702E-3 -3.0245964E-4
5.6202724E-3 -5.5778987E-4
-7.842633E-3 6.518192E-4
6.177862E-3 -1.3356013E-3
-1.0889708E-3 -3.964524E-5
6.307301E-3 1.2684921E-3
5.79716E-3 1.20979996E-4
1.8614541E-3 5.4221717E-3
-6.1204433E-3 -5.914588E-4
5.8239526E-3 1.1291758E-3
-1.2720845E-3 2.5665471E-3
-8.161273E-3 1.1494032E-3
6.7515974E-3 -8.253257E-5
3.848771E-3 3.333246E-3
6.8289787E-3 -1.8038463E-3
-1.0194731E-3 -8.3910385E-3
-1.4652491E-3 -6.1720135E-3
6.960287E-3 -7.666561E-4
-7.147481E-3 1.5545222E-3
-2.2845216E-4 -6.943385E-3
-4.4973896E-4 -9.970341E-4
5.5327783E-3 -2.9176685E-3
-7.10058E-4 -7.4491827E-3
7.984469E-3 -1.3365183E-3
6.212965E-3 -2.084699E-3
-5.6452723E-4 1.6348746E-3
-7.1923626E-3 6.0572835E-5
3.5472572E-4 7.890795E-3
-5.4681505E-4 -7.067084E-3
-6.360298E-4 -8.00084E-3
1.0950182E-2 -1.6990141E-3
-4.9147955E-3 -3.7485006E-4
-2.838166E-4 -1.2396374E-2
7.627105E-3 1.3296305E-4
8.561508E-5 -1.3461929E-2
7.5608405E-4 -6.7703156E-3
8.039512E-3 2.6425403E-3
1.1604259E-2 4.5802398E-4
-1.3557993E-2 -2.8429267E-5
1.1749071E-2 8.7436085E-4
-1.043344E-2 -2.1664654E-3
-8.681895E-3 -1.4874857E-3
-1.0455727E-2 -1.0603624E-3
-1.2891349E-2 -5.3778058E-5
-1.1765223E-2 -2.4336058E-4
8.829103E-3 -1.4779036E-3
-1.0390455E-3 -6.245479E-3
-1.295122E-2 2.954567E-4
5.5558262E-3 4.6531246E-3
-6.0893763E-3 1.9004801E-3
1.3344007E-2 2.4371265E-4
1.3308479E-2 -2.4136845E-5
1.2926893E-2 4.323853E-4
-1.3034834E-2 -4.5443204E-4
-2.8066437E-3 6.8077515E-3
-1.5876204E-3 4.458625E-3
8.555091E-3 2.6345914E-3
1.3391479E-2 -9.511427E-5
1.25554E-3 -1.1282957E-2
1.258951E-2 -8.38986E-4
1.3553951E-2 1.34765305E-5
-4.1381004E-3 -6.698032E-3
-3.209204E-3 3.4861795E-3
8.95424E-3 2.051505E-3
1.0864373E-2 1.8129975E-5
-1.3509928E-2 -5.6276345E-5
1.1023987E-2 1.5378783E-3
9.19416E-3 -1.8951597E-3
-7.0179664E-3 -1.5397491E-3
-1.0933304E-2 -1.3261052E-3
-9.8810075E-3 1.8965729E-3
1.2885668E-2 3.4157484E-4
1.08200135E-2 1.4856387E-3
-8.430994E-3 -1.0069035E-3
1.3522621E-2 0
-9.3092965E-3 3.1062309E-3
-8.879172E-3 2.896513E-3
-7.565584E-3 -1.3463728E-3
1.0106001E-2 3.6729114E-5
-1.3412204E-2 -7.330252E-5
1.2410591E-2 8.1141415E-4
-1.3224187E-2 -2.7769507E-4
-7.93233E-3 -3.6045434E-3
-1.0030142E-2 2.3771448E-3
3.174548E-3 -2.2873918E-4
1.07710315E-2 -1.6077658E-3
9.039924E-3 1.6607731E-3
6.8213525E-3 1.8920891E-3
-1.0506488E-2 -4.844526E-6
-8.38411E-3 -1.0849254E-3
2.544498E-4 -1.303706E-2
1.13706365E-2 -2.9376423E-4
-2.2366932E-3 4.1018873E-3
1.1025012E-2 -6.300579E-4
1.2963006E-2 -2.4744362E-4
1.3522356E-2 4.6319376E-5
7.861179E-3 2.0632183E-3
-1.329433E-2 -1.18438E-5
1.2035454E-2 -1.1278878E-3
-1.3257181E-2 -2.3146921E-4
-9.783508E-3 1.7619303E-3
-5.1030363E-3 5.9078773E-3
-1.3297492E-2 9.1089365E-5
-8.402456E-3 -3.9367317E-3
1.5014239E-3 -5.7555357E-4
9.03578E-3 1.50179E-3
-1.2462582E-2 3.26627E-4
-6.112156E-3 -3.0599274E-3
-1.3217916E-2 2.1294285E-4
-1.1041451E-2 2.2042897E-3
8.573318E-3 2.98741E-3
-1.2780829E-2 -6.695508E-4
1.3011309E-2 -5.087777E-4
6.59926E-3 -6.6258526E-6
-1.35430265E-2 3.227651E-6
3.0862626E-3 -8.954095E-3
5.2965865E-3 2.6905877E-3
8.191082E-4 -1.06263375E-2
1.2020259E-2 2.1008597E-4
1.3487958E-2 4.3632037E-5
-1.1903814E-2 -8.882598E-4
-1.1964312E-2 -9.437633E-4
-8.993031E-3 -1.7937836E-4
1.2525147E-2 4.503994E-4
-1.0021681E-2 9.4531715E-4
1.7145702E-3 2.6835687E-4
-9.734562E-3 -3.197144E-3
-9.144562E-3 -1.2861667E-3
-1.9196006E-3 -8.925974E-3
9.566937E-3 2.0912194E-3
-8.996523E-3 -2.8855498E-3
2.4963457E-3 -3.8183953E-3
1.31230075E-2 -2.762831E-4
-1.06923105E-2 -1.1445949E-3
-5.4567843E-3 -5.99795E-3
-1.1139765E-2 1.562812E-3
2.742304E-5 1.3461811E-2
1.1514416E-3 1.0036918E-2
-1.1151528E-2 -1.0216111E-4
1.1596347E-2 -1.1083877E-3
-9.500637E-4 1.1023154E-2
5.2290014E-4 1.6616103E-3
-9.3003595E-3 3.5689697E-3
-2.8399547E-4 1.191396E-2
-1.2878754E-2 6.055706E-4
-1.0218668E-2 2.123282E-3
1.201485E-3 -2.4787127E-3
1.1385173E-2 1.2625644E-3
9.293082E-4 -1.2545201E-2
-4.6997835E-4 1.1278894E-2
-5.052475E-4 1.2772351E-2
-7.928642E-3 -1.3456831E-3
3.297358E-3 1.3870152E-3
-2.6521385E-3 8.599156E-3
-5.2201394E-3 -1.843529E-3
-3.151229E-3 9.247849E-3
-2.0756903E-3 4.4871704E-3
-4.9275854E-3 -3.6659143E-3
-7.88344E-3 -2.9808856E-3
9.327117E-3 3.1339275E-3
-7.887496E-3 -3.3007662E-3
6.6849804E-3 3.8880734E-3
5.6351405E-3 3.0183066E-3
6.9544013E-3 3.131725E-3
8.862361E-3 2.9982459E-3
8.04356E-3 2.8700808E-3
-6.4176503E-3 -1.0106759E-3
-7.193221E-4 4.5382134E-3
8.9838E-3 2.7715773E-3
-2.7559123E-3 -4.4795307E-3
4.6286248E-3 9.043176E-5
-9.130352E-3 -3.2329794E-3
-9.167422E-3 -3.0404248E-3
-8.799862E-3 -3.2670526E-3
8.869107E-3 3.3070252E-3
3.4959437E-3 -4.0419158E-3
2.1171302E-3 -2.7047382E-3
-5.284348E-3 -3.7788735E-3
-9.240865E-3 -3.0106278E-3
-3.4561101E-3 7.4790535E-3
-8.859642E-3 -2.3143108E-3
-9.32777E-3 -3.122705E-3
1.3101876E-3 5.561634E-3
3.0100902E-3 -1.6627951E-3
-5.6930697E-3 -3.46915E-3
-7.4751307E-3 -2.5080957E-3
9.287631E-3 3.142057E-3
-7.2359177E-3 -3.5909913E-3
-6.76481E-3 -8.072825E-4
4.4776467E-3 2.672071E-3
7.222135E-3 3.4243714E-3
7.2379773E-3 9.6408295E-4
-8.792342E-3 -3.195067E-3
-7.107496E-3 -3.508174E-3
5.572806E-3 2.6298289E-3
-9.3092965E-3 -3.1062309E-3
7.1222642E-3 0
6.777982E-3 4.5572328E-5
4.8990594E-3 2.6647376E-3
-6.948777E-3 -2.3466968E-3
9.216445E-3 3.1313302E-3
-8.357362E-3 -3.4093875E-3
9.0400595E-3 3.2288504E-3
4.6328204E-3 4.3035606E-3
7.451036E-3 6.6750316E-4
-2.2379777E-3 -5.7174393E-4
-7.7843503E-3 -1.3673487E-3
-5.8418103E-3 -3.219843E-3
-4.2613586E-3 -2.8694675E-3
7.231806E-3 2.4167413E-3
5.5226083E-3 2.6727712E-3
-3.169864E-3 8.916576E-3
-7.895298E-3 -2.4096721E-3
2.4820224E-3 -2.3100553E-3
-7.734611E-3 -2.098767E-3
-8.980884E-3 -2.8073378E-3
-9.2984745E-3 -3.138057E-3
-4.93789E-3 -3.226131E-3
9.1494145E-3 3.0619449E-3
-8.544578E-3 -1.9881544E-3
9.073392E-3 3.2046067E-3
7.139928E-3 1.0343778E-3
4.8701293E-3 -2.8949252E-3
9.175235E-3 2.9918088E-3
4.8801606E-3 4.6402374E-3
-1.1658245E-3 5.133844E-5
-5.875478E-3 -3.1094437E-3
8.654568E-3 2.6378753E-3
3.5048705E-3 3.510528E-3
9.148445E-3 2.889643E-3
8.10754E-3 1.0188048E-3
-5.2158507E-3 -4.0259496E-3
8.64483E-3 3.3967716E-3
-9.074166E-3 -2.6385246E-3
-4.544611E-3 -1.5113299E-3
9.324086E-3 3.1086958E-3
-4.181469E-3 5.4552797E-3
-3.0282522E-3 -3.0689244E-3
-3.0048296E-3 7.1272715E-3
-8.2267765E-3 -2.9057565E-3
-9.275411E-3 -3.128306E-3
7.990833E-3 3.3458802E-3
8.019731E-3 3.3979868E-3
6.149815E-3 2.1892444E-3
-8.519153E-3 -3.1871707E-3
7.1163117E-3 1.651264E-3
-1.118708E-3 -5.785909E-4
5.967102E-3 4.4370806E-3
5.9998957E-3 2.985991E-3
-7.2885293E-4 6.585799E-3
-6.1057424E-3 -3.6372314E-3
5.5305935E-3 4.0530395E-3
-2.5956538E-3 2.0552487E-3
-9.097656E-3 -2.8242369E-3
7.0979227E-3 3.244057E-3
2.3788146E-3 5.3825905E-3
8.02787E-3 1.4829967E-3
3.0733836E-3 -9.273733E-3
1.5128627E-3 -7.174149E-3
7.653513E-3 2.6319057E-3
-8.237808E-3 -1.9007128E-3
3.1861342E-3 -7.3703686E-3
2.1705282E-5 -1.2640058E-3
7.2224056E-3 -3.206134E-4
2.9322207E-3 -8.136621E-3
9.005147E-3 2.5414412E-3
7.5225066E-3 8.855735E-4
-1.3965071E-3 1.4304167E-3
-7.547808E-3 -3.4844251E-3
-3.5214694E-3 8.42295E-3
2.914377E-3 -7.6567037E-3
3.2817135E-3 -8.676734E-3
-7.5539914E-3 -1.2299024E-3
3.1468426E-3 1.2988702E-3
-2.4689145E-3 8.200452E-3
-4.9796E-3 -1.7210135E-3
-2.939729E-3 8.820981E-3
-1.9466423E-3 4.283547E-3
-4.712848E-3 -3.4571788E-3
-7.521436E-3 -2.7863502E-3
8.896308E-3 2.9227568E-3
-7.527344E-3 -3.0907425E-3
6.3867136E-3 3.6573538E-3
5.3820573E-3 2.8363483E-3
6.6382717E-3 2.935843E-3
8.453149E-3 2.7966078E-3
7.6731085E-3 2.6798772E-3
-6.1138947E-3 -9.207573E-4
-6.555128E-4 4.323444E-3
8.567267E-3 2.5801188E-3
-2.651357E-3 -4.2453613E-3
4.405461E-3 5.6443645E-5
-8.709687E-3 -3.0182796E-3
-8.743734E-3 -2.8347955E-3
-8.3953915E-3 -3.0528207E-3
8.461544E-3 3.0904175E-3
3.3010915E-3 -3.8689035E-3
1.9974841E-3 -2.5875408E-3
-5.053088E-3 -3.5623952E-3
-8.813435E-3 -2.8059692E-3
-3.2411905E-3 7.139639E-3
-8.446185E-3 -2.1457511E-3
-8.896857E-3 -2.912073E-3
1.2824412E-3 5.2844076E-3
2.8539465E-3 -1.6016779E-3
-5.440071E-3 -3.265028E-3
-7.129839E-3 -2.3390271E-3
8.858783E-3 2.9307462E-3
-6.909118E-3 -3.3711072E-3
-6.442973E-3 -7.2497415E-4
4.2783E-3 2.514256E-3
6.894936E-3 3.2126298E-3
6.894271E-3 8.71168E-4
-8.387773E-3 -2.984363E-3
-6.7863753E-3 -3.2931152E-3
5.3202505E-3 2.467048E-3
-8.879172E-3 -2.896513E-3
6.777982E-3 -4.5572328E-5
6.4506335E-3 0
4.6792952E-3 2.5045804E-3
-6.627896E-3 -2.1887983E-3
8.790968E-3 2.9209936E-3
-7.975192E-3 -3.1911065E-3
8.623734E-3 3.014928E-3
4.4364114E-3 4.065888E-3
7.0951325E-3 5.8756076E-4
-2.133455E-3 -5.297867E-4
-7.4168127E-3 -1.251444E-3
-5.580026E-3 -3.0268203E-3
-4.0737297E-3 -2.703494E-3
6.897692E-3 2.2536456E-3
5.272754E-3 2.5082356E-3
-2.9595827E-3 8.505843E-3
-7.529067E-3 -2.242673E-3
2.3472633E-3 -2.2142713E-3
-7.3741577E-3 -1.9478246E-3
-8.564722E-3 -2.6141696E-3
-8.869076E-3 -2.92687E-3
-4.7198404E-3 -3.0385884E-3
8.726735E-3 2.8553903E-3
-8.144264E-3 -1.8373763E-3
8.655299E-3 2.9916428E-3
6.801411E-3 9.3869213E-4
4.6161893E-3 -2.78615E-3
8.75086E-3 2.7884801E-3
4.67395E-3 4.3847077E-3
-1.1091414E-3 5.6316392E-5
-5.6113596E-3 -2.9215422E-3
8.253096E-3 2.4549868E-3
3.3579112E-3 3.3184069E-3
8.724709E-3 2.691424E-3
7.7221496E-3 9.1768027E-4
-4.9894825E-3 -3.7979658E-3
8.248684E-3 3.177261E-3
-8.652415E-3 -2.45292E-3
-4.3346E-3 -1.4091949E-3
8.893262E-3 2.8987643E-3
-3.9444356E-3 5.218333E-3
-2.9015066E-3 -2.9011997E-3
-2.8139756E-3 6.801974E-3
-7.847696E-3 -2.7126563E-3
-8.847065E-3 -2.9177377E-3
7.6259747E-3 3.1330145E-3
7.653809E-3 3.1824172E-3
5.8665476E-3 2.0440686E-3
-8.12774E-3 -2.9785961E-3
6.782883E-3 1.5259095E-3
-1.0683332E-3 -5.434643E-4
5.7070497E-3 4.184416E-3
5.7289735E-3 2.8032612E-3
-6.5148115E-4 6.2721125E-3
-5.833871E-3 -3.4223436E-3
5.289185E-3 3.821732E-3
-2.457032E-3 1.9725088E-3
-8.675958E-3 -2.6295045E-3
6.7755743E-3 3.0418267E-3
2.2982664E-3 5.1071816E-3
7.6493006E-3 1.3599433E-3
2.8654814E-3 -8.845117E-3
1.3938285E-3 -6.837039E-3
7.3003913E-3 2.4557111E-3
-7.851763E-3 -1.7561243E-3
2.9849606E-3 -7.0344796E-3
1.2568233E-5 -1.2030441E-3
6.871232E-3 -3.5132834E-4
2.7384178E-3 -7.762068E-3
8.586111E-3 2.360971E-3
7.1645444E-3 7.9463253E-4
-1.3198489E-3 1.3702076E-3
-7.2052507E-3 -3.2676968E-3
-3.2973508E-3 8.038327E-3
2.7245076E-3 -7.3052356E-3
3.0675605E-3 -8.278309E-3
-5.957205E-3 2.0408072E-3
2.787033E-3 -2.796195E-4
1.3930271E-3 6.907218E-3
-4.280422E-3 6.8499893E-4
1.2924306E-3 7.5401524E-3
2.5107214E-4 3.8631093E-3
-4.7610183E-3 -6.779882E-4
-6.5379096E-3 8.991187E-4
7.588205E-3 -1.3339893E-3
-6.660381E-3 6.8060646E-4
6.052964E-3 1.732855E-4
5.005414E-3 -3.219581E-5
5.9553045E-3 -4.4777142E-4
7.217758E-3 -1.2534332E-3
6.6065923E-3 -1.0352442E-3
-4.7925264E-3 1.7059171E-3
1.203149E-3 3.3907448E-3
7.216483E-3 -1.4547831E-3
-3.5716384E-3 -2.0501493E-3
3.2176403E-3 -1.669559E-3
-7.4899183E-3 1.192238E-3
-7.443375E-3 1.3385564E-3
-7.275339E-3 1.0451506E-3
7.3379246E-3 -1.0435627E-3
8.9243974E-4 -4.088217E-3
4.44315E-4 -2.6525653E-3
-5.048681E-3 -6.222077E-4
-7.482744E-3 1.38653E-3
4.209373E-4 6.437553E-3
-6.959998E-3 1.7228611E-3
-7.5844545E-3 1.3419524E-3
2.9820548E-3 3.3353816E-3
1.4483734E-3 -2.269957E-3
-5.213941E-3 -2.5624354E-4
-6.080163E-3 1.0715624E-3
7.564086E-3 -1.3136239E-3
-6.3207764E-3 2.3719149E-4
-4.955223E-3 1.975709E-3
4.0796897E-3 1.627126E-4
6.248957E-3 -3.466446E-4
5.339357E-3 -2.044885E-3
-7.2432337E-3 1.0918523E-3
-6.2014563E-3 2.461095E-4
4.8171915E-3 -2.7608898E-4
-7.565584E-3 1.3463728E-3
4.8990594E-3 -2.6647376E-3
4.6792952E-3 -2.5045804E-3
4.3668156E-3 0
-5.6577236E-3 9.856495E-4
7.5111063E-3 -1.2943684E-3
-7.0242183E-3 7.816878E-4
7.426266E-3 -1.1612959E-3
4.7968347E-3 1.2268779E-3
5.3749466E-3 -2.3286021E-3
-1.7533097E-3 4.440464E-4
-5.8660586E-3 1.9719193E-3
-5.2229757E-3 -2.9107403E-5
-4.0047695E-3 -3.7941427E-4
5.8786124E-3 -1.0433629E-3
4.79873E-3 -2.2776975E-4
1.1556698E-3 7.3192585E-3
-6.3323523E-3 1.296466E-3
8.4297406E-4 -2.5176036E-3
-6.1055003E-3 1.4502022E-3
-7.2278567E-3 1.4290942E-3
-7.570048E-3 1.320432E-3
-4.6035657E-3 -3.7162728E-4
7.43904E-3 -1.3170168E-3
-6.6212527E-3 1.8293302E-3
7.4401232E-3 -1.1904434E-3
5.298214E-3 -1.9598482E-3
2.2668124E-3 -3.8133978E-3
7.430561E-3 -1.3749204E-3
5.092933E-3 1.3659212E-3
-7.827062E-4 4.7149704E-4
-5.204829E-3 5.9427362E-5
6.939997E-3 -1.4235709E-3
3.7242658E-3 1.1034027E-3
7.373907E-3 -1.4351718E-3
5.9579606E-3 -2.3325842E-3
-5.094007E-3 -8.177867E-4
7.2172335E-3 -8.97919E-4
-7.2288616E-3 1.5801134E-3
-3.6914693E-3 6.60759E-4
7.576679E-3 -1.3502105E-3
-8.3518063E-4 5.316885E-3
-3.2312009E-3 -9.779677E-4
5.997345E-4 6.0267374E-3
-6.7459657E-3 1.079253E-3
-7.5505357E-3 1.3185105E-3
6.7483396E-3 -6.8823714E-4
6.787713E-3 -6.632079E-4
5.0492473E-3 -7.950287E-4
-7.0523657E-3 9.950722E-4
5.512772E-3 -1.5266862E-3
-9.8598E-4 2.0571091E-5
5.7645775E-3 8.195093E-4
5.244221E-3 -1.9089448E-4
1.9626813E-3 4.8027458E-3
-5.5606845E-3 -2.174603E-4
5.320639E-3 7.1866176E-4
-1.0164692E-3 2.3848487E-3
-7.3145023E-3 1.4611598E-3
6.0960543E-3 -4.2420113E-4
3.6501242E-3 2.8124084E-3
6.0768332E-3 -1.9834812E-3
-1.3556608E-3 -7.528832E-3
-1.6435249E-3 -5.500774E-3
6.249186E-3 -1.0531398E-3
-6.3775238E-3 1.7747013E-3
-5.659769E-4 -6.2617846E-3
-4.579876E-4 -8.775691E-4
4.8479876E-3 -2.9227394E-3
-1.0273188E-3 -6.6938526E-3
7.145063E-3 -1.6210694E-3
5.5056973E-3 -2.2053423E-3
-4.2541052E-4 1.506406E-3
-6.49544E-3 4.2718442E-4
7.291308E-4 7.1112677E-3
-8.6003565E-4 -6.3570654E-3
-9.88999E-4 -7.1961307E-3
8.178898E-3 -1.2994838E-3
-3.6740433E-3 -2.6679135E-4
-2.4577836E-4 -9.26354E-3
5.7004048E-3 7.86526E-5
2.7418568E-5 -1.0060875E-2
5.4666284E-4 -5.061784E-3
6.0154297E-3 1.9530402E-3
8.673576E-3 3.1078103E-4
-1.0132513E-2 1.557924E-5
8.78293E-3 6.215332E-4
-7.803215E-3 -1.5907482E-3
-6.492371E-3 -1.0880766E-3
-7.816867E-3 -7.640528E-4
-9.634373E-3 -5.1758693E-6
-8.793287E-3 -1.4991725E-4
6.5943315E-3 -1.1284783E-3
-7.934842E-4 -4.6646767E-3
-9.678168E-3 2.5598417E-4
4.1647316E-3 3.4623775E-3
-4.545674E-3 1.4368453E-3
9.973177E-3 1.4589194E-4
9.945899E-3 -5.4186647E-5
9.661964E-3 2.8802772E-4
-9.742692E-3 -3.042107E-4
-2.0790272E-3 5.095331E-3
-1.1743825E-3 3.3364228E-3
6.400721E-3 1.9456997E-3
1.0007734E-2 -1.074561E-4
9.0767E-4 -8.43562E-3
9.40637E-3 -6.6120335E-4
1.0129452E-2 -2.6742871E-5
-3.1107625E-3 -4.99447E-3
-2.3888987E-3 2.614079E-3
6.6974373E-3 1.5088512E-3
8.119434E-3 -1.5959777E-5
-1.0096668E-2 -5.362885E-6
8.242848E-3 1.1193757E-3
6.866019E-3 -1.4413024E-3
-5.248992E-3 -1.131655E-3
-8.174502E-3 -9.613554E-4
-7.379325E-3 1.4442236E-3
9.630907E-3 2.2027346E-4
8.090268E-3 1.0808895E-3
-6.3035567E-3 -7.2959997E-4
1.0106001E-2 -3.6729114E-5
-6.948777E-3 2.3466968E-3
-6.627896E-3 2.1887983E-3
-5.6577236E-3 -9.856495E-4
7.552722E-3 0
-1.002368E-2 -1.835236E-5
9.27714E-3 5.726936E-4
-9.883723E-3 -1.7161395E-4
-5.9379414E-3 -2.672276E-3
-7.489474E-3 1.8037796E-3
2.3718467E-3 -1.7956863E-4
8.04526E-3 -1.2308042E-3
6.760411E-3 1.2166088E-3
5.1030116E-3 1.395507E-3
-7.851936E-3 2.491662E-5
-6.268731E-3 -7.880363E-4
1.5474999E-4 -9.743813E-3
8.496938E-3 -2.5042612E-4
-1.6604296E-3 3.0715815E-3
8.237725E-3 -5.008136E-4
9.687106E-3 -2.201336E-4
1.0105928E-2 -2.112467E-6
5.8805803E-3 1.5205741E-3
-9.935421E-3 2.7257978E-5
8.991518E-3 -8.7560574E-4
-9.908256E-3 -1.3697779E-4
-7.3068254E-3 1.3433353E-3
-3.7976585E-3 4.429056E-3
-9.937505E-3 1.0419267E-4
-6.290187E-3 -2.9192565E-3
1.1205114E-3 -4.3421247E-4
6.756883E-3 1.0978059E-3
-9.3129035E-3 2.7795162E-4
-4.5761727E-3 -2.2702056E-3
-9.877704E-3 1.9504258E-4
-8.245735E-3 1.6773449E-3
6.4153005E-3 2.209326E-3
-9.553448E-3 -4.6566763E-4
9.7224945E-3 -4.1557054E-4
4.9318755E-3 -2.2876317E-5
-1.0121242E-2 3.919732E-5
2.2821685E-3 -6.7001395E-3
3.965661E-3 1.9963987E-3
5.8329006E-4 -7.943716E-3
8.983795E-3 1.2435706E-4
1.0080214E-2 -4.026941E-6
-8.898614E-3 -6.314999E-4
-8.943977E-3 -6.728154E-4
-6.721344E-3 -1.0963037E-4
9.361772E-3 3.025816E-4
-7.4870395E-3 7.336942E-4
1.2820965E-3 1.9589691E-4
-7.283714E-3 -2.3629144E-3
-6.8375943E-3 -9.363662E-4
-1.4588395E-3 -6.665527E-3
7.1554384E-3 1.5368678E-3
-6.7313025E-3 -2.1320519E-3
1.8552485E-3 -2.8604215E-3
9.806603E-3 -2.421214E-4
-7.993904E-3 -8.2635996E-4
-4.0943664E-3 -4.467689E-3
-8.320952E-3 1.1982095E-3
5.705856E-5 1.006048E-2
8.877805E-4 7.497867E-3
-8.334265E-3 -4.605999E-5
8.6634075E-3 -8.598403E-4
-6.800806E-4 8.240629E-3
3.9529754E-4 1.2403681E-3
-6.9408407E-3 2.6924962E-3
-1.7988127E-4 8.904556E-3
-9.623168E-3 4.875481E-4
-7.631056E-3 1.6145699E-3
8.911858E-4 -1.8557056E-3
8.5120285E-3 9.126414E-4
6.6043495E-4 -9.37806E-3
-3.2059857E-4 8.430449E-3
-3.4290022E-4 9.5466655E-3
-1.0851558E-2 1.7444988E-3
4.8766965E-3 3.4514745E-4
3.4869649E-4 1.22936135E-2
-7.5655472E-3 -9.053319E-5
-1.1942187E-5 1.33524705E-2
-7.1321026E-4 6.719132E-3
-7.98819E-3 -2.5773826E-3
-1.1511988E-2 -3.9138042E-4
1.344744E-2 -4.5297293E-5
-1.1657875E-2 -8.0353266E-4
1.035999E-2 2.0922183E-3
8.619066E-3 1.4282772E-3
1.03760995E-2 9.950268E-4
1.2786378E-2 -1.6541966E-5
1.1670475E-2 1.7759764E-4
-8.748999E-3 1.5136959E-3
1.0644164E-3 6.18885E-3
1.2843868E-2 -3.632496E-4
-5.535684E-3 -4.5850133E-3
6.0293516E-3 -1.917971E-3
-1.3236368E-2 -1.6938805E-4
-1.31996805E-2 9.608187E-5
-1.2823684E-2 -3.587811E-4
1.2930862E-2 3.8006314E-4
2.746823E-3 -6.7673773E-3
1.5504877E-3 -4.4308244E-3
-8.499516E-3 -2.566704E-3
-1.3281617E-2 1.669292E-4
-1.1841264E-3 1.1197633E-2
-1.24821635E-2 9.003801E-4
-1.3443351E-2 6.01057E-5
4.140619E-3 6.620908E-3
3.1641019E-3 -3.4751093E-3
-8.892245E-3 -1.986215E-3
-1.0775759E-2 4.0910956E-5
1.33999195E-2 -1.7416874E-5
-1.0942308E-2 -1.4655625E-3
-9.108813E-3 1.9295247E-3
6.9690086E-3 1.4891339E-3
1.0851219E-2 1.2560104E-3
9.790045E-3 -1.934649E-3
-1.2782303E-2 -2.689358E-4
-1.0739717E-2 -1.4148556E-3
8.367608E-3 9.529799E-4
-1.3412204E-2 7.330252E-5
9.216445E-3 -3.1313302E-3
8.790968E-3 -2.9209936E-3
7.5111063E-3 1.2943684E-3
-1.002368E-2 1.835236E-5
1.3303084E-2 0
-1.2313653E-2 -7.37514E-4
1.3117712E-2 2.0374247E-4
7.887099E-3 3.532112E-3
9.935357E-3 -2.412105E-3
-3.1473867E-3 2.4407989E-4
-1.0674366E-2 1.6530249E-3
-8.975111E-3 -1.5982089E-3
-6.7759105E-3 -1.8396627E-3
1.0420725E-2 -5.2147767E-5
8.321532E-3 1.0306188E-3
-1.8170143E-4 1.2931988E-2
-1.1276198E-2 3.5300275E-4
2.1961941E-3 -4.0805186E-3
-1.0931572E-2 6.846771E-4
-1.2855817E-2 3.1569184E-4
-1.34121915E-2 2.7360024E-5
-7.8081735E-3 -2.0037577E-3
1.318584E-2 -6.0317518E-5
-1.19310655E-2 1.183919E-3
1.3150186E-2 1.5771542E-4
9.6940715E-3 -1.8005772E-3
5.029343E-3 -5.8873E-3
1.3188419E-2 -1.6242781E-4
8.355186E-3 3.8590396E-3
-1.4860443E-3 5.7899277E-4
-8.970141E-3 -1.4405464E-3
1.2359049E-2 -3.9151663E-4
6.078835E-3 3.0018094E-3
1.3108832E-2 -2.828551E-4
1.0939346E-2 -2.2461438E-3
-8.519507E-3 -2.9165428E-3
1.2680098E-2 5.9480255E-4
-1.2902309E-2 5.751537E-4
-6.5453383E-3 4.2344676E-5
1.34324245E-2 -7.661433E-5
-3.0125245E-3 8.897711E-3
-5.2679223E-3 -2.6399067E-3
-7.5481704E-4 1.05440095E-2
-1.1923246E-2 -1.4321151E-4
-1.33780595E-2 2.9838799E-5
1.1811431E-2 8.1647944E-4
1.1871734E-2 8.712015E-4
8.920572E-3 1.29165E-4
-1.2425316E-2 -3.7882637E-4
9.934727E-3 -9.919232E-4
-1.7020247E-3 -2.5687146E-4
9.672405E-3 3.1182696E-3
9.076865E-3 1.2260943E-3
1.9523117E-3 8.842684E-3
-9.500155E-3 -2.022284E-3
8.938705E-3 2.81322E-3
-2.4552634E-3 3.8007488E-3
-1.3014354E-2 3.451635E-4
1.0611207E-2 1.0772886E-3
5.444741E-3 5.919395E-3
1.1040334E-2 -1.6104365E-3
-1.00171834E-4 -1.335174E-2
-1.1964474E-3 -9.94872E-3
1.1061026E-2 4.087721E-5
-1.149565E-2 1.1621979E-3
8.825526E-4 -1.0938296E-2
-5.276376E-4 -1.6452081E-3
9.205073E-3 -3.5902425E-3
2.1709419E-4 -1.1818217E-2
1.2770311E-2 -6.704383E-4
1.0123718E-2 -2.1613378E-3
-1.178238E-3 2.464986E-3
-1.1299053E-2 -1.190539E-3
-8.5371593E-4 1.2447803E-2
4.0500128E-4 -1.1189343E-2
4.3188647E-4 -1.2670797E-2
9.947748E-3 -2.2163526E-3
-4.5331214E-3 -4.911587E-5
-1.0043117E-3 -1.135993E-2
7.00787E-3 -3.3562895E-4
-7.2919787E-4 -1.2360028E-2
2.876602E-4 -6.258928E-3
7.5369477E-3 1.9428272E-3
1.0677468E-2 -2.7594567E-4
-1.2444761E-2 7.874452E-4
1.0835354E-2 9.746457E-5
-9.705446E-3 -1.3622561E-3
-8.057197E-3 -8.4421225E-4
-9.659528E-3 -3.457766E-4
-1.1834459E-2 7.241797E-4
-1.0812315E-2 4.8261494E-4
8.014363E-3 -1.8861518E-3
-1.3283545E-3 -5.6695365E-3
-1.1868452E-2 1.0482877E-3
5.378151E-3 3.937103E-3
-5.474581E-3 2.1095825E-3
1.2261288E-2 -5.7702546E-4
1.2212612E-2 -8.2071696E-4
1.1889798E-2 -3.788402E-4
-1.1990185E-2 3.6508276E-4
-2.167346E-3 6.416328E-3
-1.1895265E-3 4.187235E-3
8.009652E-3 1.9045946E-3
1.2284527E-2 -8.908374E-4
4.7526642E-4 -1.0430444E-2
1.15038715E-2 -1.5254162E-3
1.2440154E-2 -8.0092583E-4
-4.199715E-3 -5.898918E-3
-2.7361105E-3 3.3920598E-3
8.340988E-3 1.3455079E-3
9.972032E-3 -6.3526875E-4
-1.2402319E-2 7.5900374E-4
1.0209712E-2 7.4992573E-4
8.324362E-3 -2.291E-3
-6.533237E-3 -9.920207E-4
-1.0113779E-2 -5.6100916E-4
-8.954643E-3 2.3335104E-3
1.1846514E-2 -4.5970874E-4
1.0019376E-2 7.1422156E-4
-7.798091E-3 -4.1820624E-4
1.2410591E-2 -8.1141415E-4
-8.357362E-3 3.4093875E-3
-7.975192E-3 3.1911065E-3
-7.0242183E-3 -7.816878E-4
9.27714E-3 -5.726936E-4
-1.2313653E-2 7.37514E-4
1.1438698E-2 0
-1.2153362E-2 5.3864816E-4
-7.4963043E-3 -2.8321517E-3
-9.062678E-3 2.7835118E-3
2.8997646E-3 -4.0041513E-4
9.788805E-3 -2.1218588E-3
8.39618E-3 9.817661E-4
6.373934E-3 1.3271839E-3
-9.642781E-3 6.259874E-4
-7.7597448E-3 -4.926252E-4
-5.4875313E-4 -1.1980229E-2
1.0417948E-2 -9.518928E-4
-1.8066285E-3 3.8987806E-3
1.0080566E-2 -1.2397924E-3
1.1882149E-2 -1.0049301E-3
1.2413127E-2 -7.688879E-4
7.3385183E-3 1.4218463E-3
-1.2201784E-2 7.868455E-4
1.0978043E-2 -1.7573138E-3
-1.21808695E-2 5.830522E-4
-8.873241E-3 2.2040906E-3
-4.328892E-3 5.7282485E-3
-1.219851E-2 8.8150403E-4
-7.947702E-3 -3.108813E-3
1.343419E-3 -6.1831484E-4
8.382839E-3 8.3610596E-4
-1.1418126E-2 1.0475742E-3
-5.793133E-3 -2.44154E-3
-1.2118166E-2 9.885626E-4
-1.0001194E-2 2.685554E-3
8.047549E-3 2.227306E-3
-1.1769977E-2 1.5241311E-4
1.1910798E-2 -1.2476711E-3
6.0561737E-3 -4.0206432E-4
-1.2429125E-2 8.1560086E-4
2.2951812E-3 -8.4029455E-3
5.0224694E-3 2.1515104E-3
1.14124035E-4 -9.801634E-3
1.1044381E-2 -5.28457E-4
1.2381397E-2 -7.6929E-4
-1.0978206E-2 -1.00935344E-4
-1.1037059E-2 -1.4824387E-4
-8.264255E-3 3.7499215E-4
1.152217E-2 -3.3820042E-4
-9.140828E-3 1.4689224E-3
1.5896754E-3 1.4340722E-4
-9.125884E-3 -2.3501134E-3
-8.469737E-3 -6.3168653E-4
-2.297339E-3 -8.076765E-3
8.905684E-3 1.3451922E-3
-8.429841E-3 -2.1084277E-3
2.0619393E-3 -3.654182E-3
1.2027261E-2 -1.0409986E-3
-9.881712E-3 -4.0888594E-4
-5.367949E-3 -5.1772804E-3
-1.0129915E-2 2.1027275E-3
8.329332E-4 1.2353135E-2
1.6590102E-3 9.142443E-3
-1.0240615E-2 5.753789E-4
1.0576216E-2 -1.7130692E-3
-2.1049984E-4 1.0173676E-2
5.796032E-4 1.4935919E-3
-8.321394E-3 3.8335372E-3
4.5424624E-4 1.0951259E-2
-1.1783336E-2 1.328551E-3
-9.250931E-3 2.5618374E-3
9.539481E-4 -2.3469706E-3
1.0524675E-2 4.755795E-4
1.00121826E-4 -1.1569312E-2
2.4545108E-4 1.0379576E-2
3.0269625E-4 1.1752336E-2
-1.067363E-2 1.8863862E-3
4.8140283E-3 2.6564923E-4
5.3212006E-4 1.2116967E-2
-7.461511E-3 2.6598138E-5
1.9272316E-4 1.3166592E-2
-6.003652E-4 6.6364263E-3
-7.916353E-3 -2.4191255E-3
-1.1357568E-2 -2.0961599E-4
1.3259362E-2 -2.5061922E-4
-1.1507735E-2 -6.1379035E-4
1.0247671E-2 1.9043967E-3
8.52084E-3 1.2763704E-3
1.0246753E-2 8.2224683E-4
1.2607953E-2 -2.1214031E-4
1.1510572E-2 -3.6155059E-6
-8.6039025E-3 1.6265983E-3
1.1443688E-3 6.086309E-3
1.2659331E-2 -5.548974E-4
-5.528768E-3 -4.436342E-3
5.9159608E-3 -1.9835867E-3
-1.3054519E-2 3.569321E-5
-1.30142765E-2 2.9690162E-4
-1.2650486E-2 -1.5738163E-4
1.2756498E-2 1.7672518E-4
2.6049018E-3 -6.7151454E-3
1.4610223E-3 -4.3928293E-3
-8.420389E-3 -2.4007643E-3
-1.30939875E-2 3.6801686E-4
-9.961294E-4 1.1059735E-2
-1.22944405E-2 1.0790034E-3
-1.32551035E-2 2.6515892E-4
4.184324E-3 6.4652334E-3
3.066789E-3 -3.4751447E-3
-8.798756E-3 -1.8223491E-3
-1.0624978E-2 2.0537601E-4
1.321293E-2 -2.2239976E-4
-1.0812279E-2 -1.2775542E-3
-8.952334E-3 2.042143E-3
6.894705E-3 1.3616502E-3
1.0719247E-2 1.0723176E-3
9.623994E-3 -2.057629E-3
-1.2608306E-2 -6.9421534E-5
-1.0611732E-2 -1.2306568E-3
8.265605E-3 8.115467E-4
-1.3224187E-2 2.7769507E-4
9.0400595E-3 -3.2288504E-3
8.623734E-3 -3.014928E-3
7.426266E-3 1.1612959E-3
-9.883723E-3 1.7161395E-4
1.3117712E-2 -2.0374247E-4
-1.2153362E-2 -5.3864816E-4
1.2938042E-2 0
7.831291E-3 3.3620992E-3
9.759969E-3 -2.5306577E-3
-3.0997908E-3 2.888823E-4
-1.0500307E-2 1.793473E-3
-8.874523E-3 -1.438481E-3
-6.709666E-3 -1.7102519E-3
1.02747185E-2 -2.1101903E-4
8.221359E-3 8.888095E-4
1.8889015E-5 1.2754568E-2
-1.1113662E-2 5.2078365E-4
2.103096E-3 -4.0572938E-3
-1.0768759E-2 8.42558E-4
-1.2671841E-2 5.081857E-4
-1.3224878E-2 2.323925E-4
-7.730058E-3 -1.8562513E-3
1.3001177E-2 -2.6142388E-4
-1.1746679E-2 1.3501509E-3
1.296936E-2 -4.588273E-5
9.531411E-3 -1.9239561E-3
4.8690946E-3 -5.8822893E-3
1.3002155E-2 -3.6215066E-4
8.297863E-3 3.6773016E-3
-1.4564693E-3 5.936842E-4
-8.867208E-3 -1.2830915E-3
1.2180835E-2 -5.753448E-4
6.040103E-3 2.8668807E-3
1.2921835E-2 -4.796812E-4
1.0752509E-2 -2.3823853E-3
-8.4454585E-3 -2.7454223E-3
1.2512517E-2 3.923131E-4
-1.2713712E-2 7.647439E-4
-6.4534834E-3 1.4199936E-4
1.3244077E-2 -2.8127033E-4
-2.834274E-3 8.819863E-3
-5.2349474E-3 -2.5224404E-3
-5.8281317E-4 1.0408644E-2
-1.1759295E-2 4.1393538E-5
-1.3191185E-2 2.3431389E-4
1.1659348E-2 6.242051E-4
1.171965E-2 6.772412E-4
8.798246E-3 -9.257288E-6
-1.2257977E-2 -1.8324837E-4
9.781099E-3 -1.1302555E-3
-1.6822418E-3 -2.2722477E-4
9.585382E-3 2.9266807E-3
8.969162E-3 1.0699929E-3
2.0605368E-3 8.689566E-3
-9.398746E-3 -1.8486053E-3
8.857233E-3 2.637119E-3
-2.36284E-3 3.7853902E-3
-1.2827719E-2 5.396743E-4
1.0479844E-2 8.997617E-4
5.4595293E-3 5.7535223E-3
1.0861827E-2 -1.7570833E-3
-3.032638E-4 -1.3164156E-2
-1.3321438E-3 -9.791765E-3
1.0907521E-2 -1.2909669E-4
-1.1317664E-2 1.3220644E-3
7.0272986E-4 -1.0799393E-2
-5.4548227E-4 -1.6142018E-3
9.021818E-3 -3.6811936E-3
3.3068074E-5 -1.1656861E-2
1.2582095E-2 -8.5667893E-4
9.949546E-3 -2.2862693E-3
-1.1240673E-3 2.4486827E-3
-1.1159839E-2 -1.0008995E-3
-6.5117603E-4 1.2287423E-2
2.2798787E-4 -1.1039629E-2
2.3180949E-4 -1.25008505E-2
-5.9704618E-3 3.91548E-3
2.9829238E-3 -1.0901853E-3
3.4708213E-3 7.1960236E-3
-4.5094797E-3 1.9550594E-3
3.5381443E-3 7.919549E-3
1.3611555E-3 4.1729864E-3
-5.4203407E-3 5.928785E-4
-6.9291135E-3 2.824516E-3
7.960658E-3 -3.597296E-3
-7.1250377E-3 2.618895E-3
6.697711E-3 -1.5102602E-3
5.4892735E-3 -1.4416615E-3
6.4159455E-3 -2.1650372E-3
7.576363E-3 -3.4047284E-3
6.9663147E-3 -2.9933432E-3
-4.785181E-3 3.2203896E-3
2.2742748E-3 3.3866158E-3
7.5183935E-3 -3.6255477E-3
-4.4993525E-3 -1.2485674E-3
3.065425E-3 -2.7379794E-3
-7.892518E-3 3.4139717E-3
-7.8002824E-3 3.5616215E-3
-7.6981336E-3 3.1921128E-3
7.7673276E-3 -3.2079522E-3
-1.6828222E-4 -4.7415365E-3
-2.571825E-4 -3.0386073E-3
-5.720659E-3 7.349722E-4
-7.83005E-3 3.625381E-3
2.2710504E-3 6.953223E-3
-7.1613328E-3 3.8479639E-3
-7.9543E-3 3.6049897E-3
4.2128023E-3 2.8260082E-3
9.5324573E-4 -2.900417E-3
-5.799373E-3 1.1834049E-3
-6.3778427E-3 2.8853351E-3
7.939885E-3 -3.5681485E-3
-6.876571E-3 2.0364018E-3
-4.8881E-3 3.5624593E-3
4.5271493E-3 -9.6747273E-4
6.766927E-3 -2.136455E-3
5.2906265E-3 -3.7463715E-3
-7.6497444E-3 3.234393E-3
-6.742995E-3 2.0126742E-3
5.2139927E-3 -1.65669E-3
-7.93233E-3 3.6045434E-3
4.6328204E-3 -4.3035606E-3
4.4364114E-3 -4.065888E-3
4.7968347E-3 -1.2268779E-3
-5.9379414E-3 2.672276E-3
7.887099E-3 -3.532112E-3
-7.4963043E-3 2.8321517E-3
7.831291E-3 -3.3620992E-3
5.6138965E-3 0
5.250009E-3 -4.0680273E-3
-1.8012088E-3 9.803744E-4
-5.889695E-3 3.8142004E-3
-5.7454826E-3 1.4354464E-3
-4.5057344E-3 7.083824E-4
6.1643673E-3 -2.797732E-3
5.2072885E-3 -1.5984258E-3
3.325855E-3 7.7153267E-3
-6.591677E-3 3.203239E-3
2.1865247E-4 -3.0023602E-3
-6.2992936E-3 3.3083796E-3
-7.538105E-3 3.6005243E-3
-7.9445215E-3 3.5773024E-3
-5.1613087E-3 8.851712E-4
7.801572E-3 -3.5367436E-3
-6.7593167E-3 3.869745E-3
7.838324E-3 -3.39801E-3
5.2693235E-3 -3.6414019E-3
1.4186427E-3 -4.825792E-3
7.775989E-3 -3.5979669E-3
5.9782183E-3 6.954533E-5
-7.273133E-4 7.3783245E-4
-5.7006744E-3 1.5276013E-3
7.2234496E-3 -3.513582E-3
4.401017E-3 1.6570912E-4
7.69683E-3 -3.6482345E-3
5.8893156E-3 -4.2362018E-3
-5.825397E-3 5.3286814E-4
7.6756706E-3 -3.0140579E-3
-7.4967784E-3 3.7666976E-3
-3.8693405E-3 1.762963E-3
7.94344E-3 -3.6118762E-3
5.7638023E-4 6.07511E-3
-3.8241558E-3 -1.6645099E-4
2.352034E-3 6.451717E-3
-7.1070483E-3 3.0808435E-3
-7.923627E-3 3.5697096E-3
7.219515E-3 -2.6519895E-3
7.269797E-3 -2.6355574E-3
5.3231013E-3 -2.2919292E-3
-7.467272E-3 3.0744576E-3
5.6267087E-3 -3.2258658E-3
-1.0772942E-3 2.9961264E-4
6.5624854E-3 -7.193761E-4
5.7070097E-3 -1.6830817E-3
3.5053096E-3 4.724268E-3
-6.1693657E-3 1.3234267E-3
6.046497E-3 -7.054277E-4
-4.465306E-4 2.9052768E-3
-7.6242727E-3 3.6600907E-3
6.5771774E-3 -2.1786902E-3
4.799727E-3 2.0638385E-3
6.1179763E-3 -3.886119E-3
-3.6044207E-3 -7.889349E-3
-3.3508388E-3 -5.5807023E-3
6.5686856E-3 -2.9125859E-3
-6.5069357E-3 3.7412597E-3
-2.3809897E-3 -6.719396E-3
-7.496449E-4 -8.353133E-4
4.5042317E-3 -4.5726197E-3
-3.0091535E-3 -7.064395E-3
7.393221E-3 -3.7881427E-3
5.4282653E-3 -3.9693643E-3
-4.4070508E-5 1.7742695E-3
-7.0150536E-3 2.2941765E-3
2.7988767E-3 7.6066926E-3
-2.7307754E-3 -6.7414423E-3
-3.1081778E-3 -7.6269014E-3
-8.420756E-3 -6.6472415E-4
3.5795602E-3 1.1420109E-3
-1.968646E-3 9.244663E-3
-5.633884E-3 -1.4393937E-3
-2.429979E-3 9.970075E-3
-1.750966E-3 4.8888386E-3
-5.4986198E-3 -3.3733207E-3
-8.526719E-3 -2.379646E-3
1.0051382E-2 2.4044495E-3
-8.5609425E-3 -2.7139122E-3
7.3579587E-3 3.4410306E-3
6.178143E-3 2.6295062E-3
7.5689317E-3 2.6245182E-3
9.552456E-3 2.3060625E-3
8.683846E-3 2.2487196E-3
-6.8086176E-3 -4.5586374E-4
-3.2720267E-4 4.815118E-3
9.658257E-3 2.0575493E-3
-3.3029527E-3 -4.4280253E-3
4.850763E-3 -3.391916E-4
-9.854817E-3 -2.5265154E-3
-9.875551E-3 -2.321598E-3
-9.512264E-3 -2.5931348E-3
9.588451E-3 2.6284629E-3
3.2785097E-3 -4.5561376E-3
1.9613695E-3 -3.0280107E-3
-5.8824383E-3 -3.4580587E-3
-9.949592E-3 -2.2835422E-3
-2.9147065E-3 8.148205E-3
-9.485511E-3 -1.5908112E-3
-1.0051012E-2 -2.392648E-3
1.8919072E-3 5.695574E-3
2.9932014E-3 -2.0216594E-3
-6.281E-3 -3.095732E-3
-8.055252E-3 -1.9232987E-3
1.0010835E-2 2.4166557E-3
-7.906485E-3 -3.0786009E-3
-7.1527413E-3 -2.1054517E-4
4.934768E-3 2.375769E-3
7.876451E-3 2.9055811E-3
7.662446E-3 3.3023863E-4
-9.49765E-3 -2.518531E-3
-7.7643744E-3 -3.0039968E-3
6.0765226E-3 2.2289378E-3
-1.0030142E-2 -2.3771448E-3
7.451036E-3 -6.6750316E-4
7.0951325E-3 -5.8756076E-4
5.3749466E-3 2.3286021E-3
-7.489474E-3 -1.8037796E-3
9.935357E-3 2.412105E-3
-9.062678E-3 -2.7835118E-3
9.759969E-3 2.5306577E-3
5.250009E-3 4.0680273E-3
7.857543E-3 0
-2.39487E-3 -3.8839175E-4
-8.271834E-3 -7.0091296E-4
-6.4132405E-3 -2.8209765E-3
-4.726996E-3 -2.6025483E-3
7.7921334E-3 1.8505314E-3
6.0280324E-3 2.278567E-3
-2.4805216E-3 9.625258E-3
-8.485591E-3 -1.7809531E-3
2.3800954E-3 -2.649307E-3
-8.288348E-3 -1.4707561E-3
-9.658558E-3 -2.0952339E-3
-1.0021804E-2 -2.4114545E-3
-5.468184E-3 -2.9122706E-3
9.85873E-3 2.3457985E-3
-9.125337E-3 -1.2791264E-3
9.792568E-3 2.5021706E-3
7.566459E-3 4.1296735E-4
4.8236265E-3 -3.4849902E-3
9.87917E-3 2.2700054E-3
5.5403206E-3 4.397065E-3
-1.2148288E-3 1.6297007E-4
-6.438115E-3 -2.7023258E-3
9.301297E-3 1.9485311E-3
3.995668E-3 3.3440993E-3
9.841567E-3 2.1656344E-3
8.577277E-3 3.059902E-4
-5.833935E-3 -3.722959E-3
9.362234E-3 2.743372E-3
-9.740326E-3 -1.9098852E-3
-4.8960387E-3 -1.155171E-3
1.0045845E-2 2.3783378E-3
-3.8632182E-3 6.098992E-3
-3.4556617E-3 -2.92678E-3
-2.475564E-3 7.73789E-3
-8.878863E-3 -2.2688713E-3
-9.9967625E-3 -2.4034146E-3
8.673277E-3 2.7514242E-3
8.708393E-3 2.8032276E-3
6.6388748E-3 1.7139378E-3
-9.21111E-3 -2.5358743E-3
7.5995666E-3 1.0605431E-3
-1.2245749E-3 -5.004533E-4
6.6583958E-3 4.082661E-3
6.556707E-3 2.5615138E-3
-1.4527215E-4 6.9581154E-3
-6.7284745E-3 -3.2328959E-3
6.165746E-3 3.7218016E-3
-2.5228527E-3 2.3933877E-3
-9.782305E-3 -2.1019687E-3
7.729606E-3 2.7285847E-3
2.9930833E-3 5.4081134E-3
8.537433E-3 7.990764E-4
2.3461145E-3 -9.98986E-3
9.103328E-4 -7.6471027E-3
8.253472E-3 2.0361056E-3
-8.79621E-3 -1.2163996E-3
2.6424543E-3 -8.0092E-3
-9.575622E-5 -1.3243881E-3
7.5257528E-3 -1.0123015E-3
2.3050064E-3 -8.787026E-3
9.659021E-3 1.8147891E-3
7.952752E-3 2.2143865E-4
-1.3269118E-3 1.627328E-3
-8.222787E-3 -2.937885E-3
-2.8946204E-3 9.141797E-3
2.3313167E-3 -8.283284E-3
2.6200123E-3 -9.384827E-3
2.5993856E-3 -2.1363205E-4
-1.1474487E-3 -1.7113442E-4
1.4306007E-4 -2.9149528E-3
1.7882772E-3 1.60229E-4
2.4781135E-4 -3.1588518E-3
2.92019E-4 -1.5765986E-3
1.842643E-3 7.5634907E-4
2.7164489E-3 3.038145E-4
-3.182371E-3 -2.3601156E-4
2.7434023E-3 4.0400258E-4
-2.4126905E-3 -6.8508054E-4
-2.0129858E-3 -4.960566E-4
-2.4366325E-3 -4.2579087E-4
-3.0254421E-3 -2.3068588E-4
-2.7578678E-3 -2.561433E-4
2.0977047E-3 -1.9760316E-4
-1.3828039E-4 -1.4837541E-3
-3.0454048E-3 -1.4971285E-4
1.2255674E-3 1.1863383E-3
-1.4616789E-3 3.4314994E-4
3.1284941E-3 2.8293143E-4
3.124685E-3 2.194506E-4
3.027382E-3 3.2016833E-4
-3.052349E-3 -3.2716992E-4
-7.7403814E-4 1.5507011E-3
-4.481261E-4 1.0198443E-3
1.963814E-3 7.632042E-4
3.1453704E-3 2.0419213E-4
4.8560323E-4 -2.6275304E-3
2.969684E-3 1.5996367E-5
3.1816752E-3 2.3243295E-4
-8.581543E-4 -1.6424162E-3
-8.123572E-4 7.641249E-4
2.0673806E-3 6.330715E-4
2.5501957E-3 1.8803029E-4
-3.1706162E-3 -2.4173598E-4
2.5619592E-3 5.4750376E-4
2.190463E-3 -2.8938256E-4
-1.6214808E-3 -4.8018002E-4
-2.544253E-3 -4.962545E-4
-2.35173E-3 2.7809595E-4
3.01924E-3 2.9815247E-4
2.5149581E-3 5.3178996E-4
-1.9622138E-3 -3.789919E-4
3.174548E-3 2.2873918E-4
-2.2379777E-3 5.7174393E-4
-2.133455E-3 5.297867E-4
-1.7533097E-3 -4.440464E-4
2.3718467E-3 1.7956863E-4
-3.1473867E-3 -2.4407989E-4
2.8997646E-3 4.0041513E-4
-3.0997908E-3 -2.888823E-4
-1.8012088E-3 -9.803744E-4
-2.39487E-3 3.8839175E-4
7.491208E-4 0
2.5557852E-3 -1.9524117E-4
2.094105E-3 5.427933E-4
1.5693642E-3 5.59569E-4
-2.4664039E-3 -1.7885776E-4
-1.9498878E-3 -3.9651504E-4
2.8026005E-4 -3.0562547E-3
2.674321E-3 1.2337421E-4
-5.94467E-4 9.251179E-4
2.598871E-3 3.8580067E-5
3.0473596E-3 1.6118375E-4
3.1737022E-3 2.3960868E-4
1.8105772E-3 6.1733194E-4
-3.1207544E-3 -2.2765805E-4
2.8445018E-3 -6.119771E-5
-3.1083187E-3 -2.785886E-4
-2.3265637E-3 2.481368E-4
-1.297914E-3 1.3006041E-3
-3.1232378E-3 -2.0354713E-4
-1.9059556E-3 -1.0663107E-3
3.6220741E-4 -1.0971897E-4
2.0958218E-3 5.0540065E-4
-2.93122E-3 -1.3412996E-4
-1.3831201E-3 -8.217324E-4
-3.106618E-3 -1.7359489E-4
-2.6293593E-3 3.3070587E-4
1.9621248E-3 8.463397E-4
-2.989081E-3 -3.7337426E-4
3.0631192E-3 1.00650446E-4
1.5493435E-3 1.10073E-4
-3.1793928E-3 -2.2832664E-4
8.759871E-4 -2.0498433E-3
1.1979057E-3 7.212312E-4
3.7204014E-4 -2.4807658E-3
2.8183023E-3 2.526456E-4
3.1656725E-3 2.3839592E-4
-2.7794945E-3 -4.0988313E-4
-2.7927582E-3 -4.2393626E-4
-2.108155E-3 -1.9423048E-4
2.9327641E-3 3.1760175E-4
-2.3686637E-3 5.2401356E-5
3.9797032E-4 9.200149E-5
-2.2311886E-3 -9.1521925E-4
-2.1250064E-3 -4.5662126E-4
-2.9965685E-4 -2.1279175E-3
2.2105447E-3 6.527589E-4
-2.063199E-3 -8.295857E-4
6.5062725E-4 -8.5417373E-4
3.0854088E-3 1.5711981E-4
-2.4907477E-3 -4.4956678E-4
-1.1795686E-3 -1.500372E-3
-2.6415882E-3 1.784507E-4
-2.2127287E-4 3.1607363E-3
1.00532954E-4 2.3757273E-3
-2.6161862E-3 -2.1261456E-4
2.741088E-3 -6.404747E-5
-4.0949546E-4 2.571707E-3
9.464852E-5 3.9892187E-4
-2.2437074E-3 6.80527E-4
-2.6819864E-4 2.7920974E-3
-3.0336385E-3 -7.5685246E-5
-2.4348332E-3 3.2560632E-4
3.2398684E-4 -5.61575E-4
2.6514078E-3 4.889812E-4
4.303688E-4 -2.929371E-3
-3.011173E-4 2.6398643E-3
-3.346592E-4 2.9898696E-3
8.924037E-3 -5.1381E-5
-3.8701629E-3 -8.8291784E-4
1.2477955E-3 -9.907697E-3
6.059329E-3 1.0127295E-3
1.668744E-3 -1.071251E-2
1.4071894E-3 -5.302794E-3
6.0894443E-3 3.0606892E-3
9.188562E-3 1.7445086E-3
-1.0795825E-2 -1.634616E-3
9.254407E-3 2.093346E-3
-8.052858E-3 -2.966111E-3
-6.738445E-3 -2.2170413E-3
-8.202119E-3 -2.0877288E-3
-1.0261818E-2 -1.5755466E-3
-9.342295E-3 -1.5926622E-3
7.208267E-3 -1.2744688E-4
-8.506643E-5 -5.0981827E-3
-1.0351027E-2 -1.3044926E-3
3.8720928E-3 4.366862E-3
-5.076263E-3 7.897758E-4
1.0599785E-2 1.7806515E-3
1.0603333E-2 1.5630804E-3
1.0245115E-2 1.8813404E-3
-1.0328471E-2 -1.9117346E-3
-3.044951E-3 5.088812E-3
-1.7946769E-3 3.3626226E-3
6.5010586E-3 3.1156573E-3
1.06778825E-2 1.5164138E-3
2.3415443E-3 -8.837818E-3
1.0127542E-2 8.285554E-4
1.07943835E-2 1.6222254E-3
-2.499718E-3 -5.8271107E-3
-2.9706813E-3 2.395253E-3
6.8883137E-3 2.6986739E-3
8.651529E-3 1.3061558E-3
-1.075423E-2 -1.651082E-3
8.5979765E-3 2.5356421E-3
7.5486517E-3 -4.1639624E-4
-5.4068794E-3 -2.060838E-3
-8.550923E-3 -2.356179E-3
-8.095907E-3 3.3585908E-4
1.0223075E-2 1.8041065E-3
8.441717E-3 2.469781E-3
-6.595735E-3 -1.8044175E-3
1.07710315E-2 1.6077658E-3
-7.7843503E-3 1.3673487E-3
-7.4168127E-3 1.251444E-3
-5.8660586E-3 -1.9719193E-3
8.04526E-3 1.2308042E-3
-1.0674366E-2 -1.6530249E-3
9.788805E-3 2.1218588E-3
-1.0500307E-2 -1.793473E-3
-5.889695E-3 -3.8142004E-3
-8.271834E-3 7.0091296E-4
2.5557852E-3 1.9524117E-4
8.770491E-3 0
7.003018E-3 2.397636E-3
5.2083815E-3 2.318108E-3
-8.368047E-3 -1.253023E-3
-6.5491158E-3 -1.8609894E-3
1.7527096E-3 -1.035402E-2
9.091861E-3 1.1179178E-3
-2.2692617E-3 3.0013025E-3
8.856548E-3 8.089602E-4
1.0354707E-2 1.3441371E-3
1.0765313E-2 1.6446287E-3
6.016277E-3 2.578045E-3
-1.0587785E-2 -1.5900574E-3
9.720573E-3 5.325657E-4
-1.0532084E-2 -1.7605765E-3
-8.002239E-3 2.402061E-4
-4.7670826E-3 4.0990165E-3
-1.0602541E-2 -1.5084449E-3
-6.2246644E-3 -4.1346895E-3
1.2643436E-3 -2.799285E-4
7.018621E-3 2.27051E-3
-9.965524E-3 -1.2215686E-3
-4.5046424E-3 -3.163994E-3
-1.0553646E-2 -1.4019251E-3
-9.05681E-3 4.4299115E-4
6.4736274E-3 3.398851E-3
-1.0100574E-2 -2.0528815E-3
1.0424253E-2 1.1417229E-3
5.257227E-3 7.793383E-4
-1.0787669E-2 -1.6076211E-3
3.5228613E-3 -6.7651714E-3
3.8989382E-3 2.7728411E-3
1.9158493E-3 -8.3666975E-3
9.549392E-3 1.5964806E-3
1.0738234E-2 1.638399E-3
-9.376011E-3 -2.1228155E-3
-9.4176E-3 -2.1742175E-3
-7.1417987E-3 -1.2121011E-3
9.922974E-3 1.847924E-3
-8.094857E-3 -4.385601E-4
1.3337823E-3 4.176045E-4
-7.3736445E-3 -3.7039742E-3
-7.1309046E-3 -2.1116952E-3
-4.6775E-4 -7.3379423E-3
7.3716175E-3 2.803154E-3
-6.8228305E-3 -3.368034E-3
2.4423744E-3 -2.7446244E-3
1.048558E-2 1.3401891E-3
-8.380548E-3 -2.1829493E-3
-3.6333113E-3 -5.426266E-3
-9.05885E-3 -7.964724E-5
-1.5786934E-3 1.0725855E-2
-2.761896E-4 8.131501E-3
-8.870264E-3 -1.4072295E-3
9.368498E-3 4.958902E-4
-2.0673375E-3 8.6672E-3
2.1894372E-4 1.385675E-3
-7.83225E-3 1.7369918E-3
-1.6427133E-3 9.455936E-3
-1.0330178E-2 -1.048865E-3
-8.391814E-3 4.7629175E-4
1.2517117E-3 -1.831493E-3
8.9184E-3 2.3592922E-3
2.2317683E-3 -9.882008E-3
-1.7153464E-3 8.927981E-3
-1.9210024E-3 1.0113355E-2
7.1115745E-3 -2.4806375E-3
-3.331597E-3 3.530192E-4
-1.7121861E-3 -8.252166E-3
5.1150783E-3 -8.4783183E-4
-1.596085E-3 -9.009865E-3
-3.2604745E-4 -4.6188394E-3
5.698986E-3 7.791799E-4
7.813742E-3 -1.1189793E-3
-9.06706E-3 1.6461122E-3
7.961683E-3 -8.5844175E-4
-7.2408672E-3 -1.6691335E-4
-5.9865643E-3 7.187226E-5
-7.119921E-3 5.7525735E-4
-8.624521E-3 1.5472929E-3
-7.894984E-3 1.2822513E-3
5.7207807E-3 -2.0723252E-3
-1.4616407E-3 -4.0475167E-3
-8.621654E-3 1.7881106E-3
4.2855614E-3 2.428296E-3
-3.8373645E-3 2.0183413E-3
8.9504495E-3 -1.4759139E-3
8.893806E-3 -1.6506091E-3
8.69478E-3 -1.2985577E-3
-8.769647E-3 1.2970758E-3
-1.0401618E-3 4.895704E-3
-5.137468E-4 3.1755904E-3
6.042676E-3 7.105457E-4
8.940573E-3 -1.7082511E-3
-5.463764E-4 -7.696898E-3
8.313095E-3 -2.107039E-3
9.062523E-3 -1.6556118E-3
-3.5889507E-3 -3.969441E-3
-1.717212E-3 2.7246606E-3
6.2378976E-3 2.7172908E-4
7.265101E-3 -1.3221819E-3
-9.03835E-3 1.6215931E-3
7.5584515E-3 -3.2582768E-4
5.9135775E-3 -2.3960974E-3
-4.8806407E-3 -1.6742053E-4
-7.471821E-3 4.5626092E-4
-6.3725645E-3 2.4813963E-3
8.656068E-3 -1.3542019E-3
7.415678E-3 -3.3569869E-4
-5.7598134E-3 3.6232872E-4
9.039924E-3 -1.6607731E-3
-5.8418103E-3 3.219843E-3
-5.580026E-3 3.0268203E-3
-5.2229757E-3 2.9107403E-5
6.760411E-3 -1.2166088E-3
-8.975111E-3 1.5982089E-3
8.39618E-3 -9.817661E-4
-8.874523E-3 1.438481E-3
-5.7454826E-3 -1.4354464E-3
-6.4132405E-3 2.8209765E-3
2.094105E-3 -5.427933E-4
7.003018E-3 -2.397636E-3
6.24719E-3 0
4.792476E-3 4.271082E-4
-7.0242225E-3 1.2871099E-3
-5.7380535E-3 3.0441294E-4
-1.4310386E-3 -8.746574E-3
7.5652353E-3 -1.5928607E-3
-9.914666E-4 3.0168253E-3
7.2928816E-3 -1.7752266E-3
8.63543E-3 -1.7574611E-3
9.045434E-3 -1.6297755E-3
5.5086208E-3 4.1380324E-4
-8.888764E-3 1.6248176E-3
7.907226E-3 -2.2321246E-3
-8.8909045E-3 1.4734351E-3
-6.323922E-3 2.3794135E-3
-2.6858265E-3 4.576165E-3
-8.878237E-3 1.6940176E-3
-6.100561E-3 -1.5997771E-3
9.3302125E-4 -5.6915625E-4
6.2248954E-3 -1.0577194E-4
-8.291169E-3 1.7489364E-3
-4.4618025E-3 -1.2949121E-3
-8.810075E-3 1.765704E-3
-7.1105342E-3 2.8296257E-3
6.0981917E-3 9.4416784E-4
-8.626264E-3 1.1220728E-3
8.635624E-3 -1.9380957E-3
4.4108164E-3 -8.149138E-4
-9.053168E-3 1.6654367E-3
9.634864E-4 -6.364884E-3
3.871231E-3 1.1481709E-3
-7.5749075E-4 -7.204345E-3
8.06139E-3 -1.3358182E-3
9.022109E-3 -1.6273475E-3
-8.066836E-3 8.681552E-4
-8.114096E-3 8.3848066E-4
-6.0339062E-3 9.845588E-4
8.428425E-3 -1.2371751E-3
-6.583434E-3 1.8627553E-3
1.1791547E-3 -3.117637E-5
-6.9002463E-3 -9.4175857E-4
-6.2711346E-3 2.6327698E-4
-2.379499E-3 -5.7312925E-3
6.6523654E-3 2.2303032E-4
-6.368597E-3 -8.240979E-4
1.1998625E-3 -2.8591992E-3
8.738847E-3 -1.7963909E-3
-7.288423E-3 5.480038E-4
-4.3845163E-3 -3.3394806E-3
-7.25504E-3 2.4128698E-3
1.6716371E-3 8.995904E-3
2.0024213E-3 6.5683043E-3
-7.467386E-3 1.3012737E-3
7.6160757E-3 -2.1651601E-3
7.1868126E-4 7.485702E-3
5.5363047E-4 1.046573E-3
-5.779005E-3 3.5280886E-3
1.2733538E-3 7.999406E-3
-8.535123E-3 1.9865232E-3
-6.5704477E-3 2.674422E-3
4.987757E-4 -1.8045887E-3
7.7660927E-3 -5.542343E-4
-9.1948576E-4 -8.500648E-3
1.0710283E-3 7.5977035E-3
1.230869E-3 8.6004175E-3
5.285985E-3 -2.389204E-3
-2.5316696E-3 4.985903E-4
-1.8776731E-3 -6.2135165E-3
3.8660222E-3 -1.0001148E-3
-1.8404096E-3 -6.8027168E-3
-5.6590553E-4 -3.5210107E-3
4.425198E-3 2.0811234E-4
5.917741E-3 -1.3926257E-3
-6.843174E-3 1.8826979E-3
6.049044E-3 -1.202871E-3
-5.5661784E-3 3.6699823E-4
-4.587626E-3 4.64426E-4
-5.4226546E-3 9.2807895E-4
-6.5104393E-3 1.7766339E-3
-5.9689023E-3 1.5234328E-3
4.246965E-3 -1.9808847E-3
-1.3980056E-3 -3.0050871E-3
-6.4917756E-3 1.961179E-3
3.4536484E-3 1.5698498E-3
-2.80581E-3 1.8107058E-3
6.765353E-3 -1.7441591E-3
6.7099542E-3 -1.8743023E-3
6.5813437E-3 -1.5906227E-3
-6.6388776E-3 1.594604E-3
-4.63241E-4 3.8268093E-3
-1.7700733E-4 2.47125E-3
4.684164E-3 1.319627E-4
6.7418916E-3 -1.9217192E-3
-9.4537E-4 -5.8672526E-3
6.233263E-3 -2.1847466E-3
6.8390425E-3 -1.889675E-3
-3.0246146E-3 -2.7997522E-3
-1.131064E-3 2.2076017E-3
4.803925E-3 -2.180185E-4
5.4829633E-3 -1.5110007E-3
-6.822824E-3 1.8619251E-3
5.776122E-3 -7.667125E-4
4.372732E-3 -2.2424445E-3
-3.7555865E-3 2.0524459E-4
-5.7007475E-3 8.608506E-4
-4.7190078E-3 2.3392614E-3
6.5478417E-3 -1.630663E-3
5.66592E-3 -7.645236E-4
-4.393818E-3 6.717446E-4
6.8213525E-3 -1.8920891E-3
-4.2613586E-3 2.8694675E-3
-4.0737297E-3 2.703494E-3
-4.0047695E-3 3.7941427E-4
5.1030116E-3 -1.395507E-3
-6.7759105E-3 1.8396627E-3
6.373934E-3 -1.3271839E-3
-6.709666E-3 1.7102519E-3
-4.5057344E-3 -7.083824E-4
-4.726996E-3 2.6025483E-3
1.5693642E-3 -5.59569E-4
5.2083815E-3 -2.318108E-3
4.792476E-3 -4.271082E-4
3.705706E-3 0
-5.300572E-3 1.4676275E-3
-4.381085E-3 6.2582747E-4
-1.6957948E-3 -6.6120196E-3
5.694702E-3 -1.7391695E-3
-5.5434037E-4 2.3821155E-3
5.4733003E-3 -1.8604493E-3
6.504439E-3 -1.9386086E-3
6.8277004E-3 -1.8686872E-3
4.2541805E-3 -5.9168386E-5
-6.7078513E-3 1.8541723E-3
5.9133517E-3 -2.2529564E-3
-6.7198416E-3 1.7381865E-3
-4.688665E-3 2.2577E-3
-1.7475444E-3 3.6941895E-3
-6.6950433E-3 1.9065384E-3
-4.789365E-3 -8.101714E-4
6.7684683E-4 -5.00412E-4
4.7681415E-3 -5.0672615E-4
-6.2409253E-3 1.9085321E-3
-3.5113632E-3 -6.883354E-4
-6.637852E-3 1.9568722E-3
-5.261327E-3 2.6568556E-3
4.742725E-3 3.0738834E-4
-6.540848E-3 1.4505495E-3
6.4922385E-3 -2.0771942E-3
3.3280046E-3 -9.267128E-4
-6.831195E-3 1.8965729E-3
3.0397507E-4 -4.948636E-3
3.0482786E-3 6.1614055E-4
-1.0736495E-3 -5.4749614E-3
6.092896E-3 -1.5759026E-3
6.8099727E-3 -1.8652296E-3
-6.1290474E-3 1.2175115E-3
-6.1673312E-3 1.1979782E-3
-4.5615453E-3 1.1678222E-3
6.381207E-3 -1.5253229E-3
-4.92307E-3 1.8790925E-3
9.0244657E-4 -1.0453322E-4
-5.3578485E-3 -2.5070523E-4
-4.792845E-3 6.307161E-4
-2.2172488E-3 -4.2340285E-3
5.118551E-3 -2.8371374E-4
-4.9419547E-3 -1.9679056E-4
7.249859E-4 -2.2754413E-3
6.581114E-3 -1.9755438E-3
-5.553783E-3 9.186918E-4
-3.5918565E-3 -2.262092E-3
-5.4006763E-3 2.3470246E-3
1.897414E-3 6.7868405E-3
1.985202E-3 4.9019144E-3
-5.639573E-3 1.5087912E-3
5.6945775E-3 -2.1816797E-3
1.0631128E-3 5.6934548E-3
4.9626484E-4 7.650186E-4
-4.1921036E-3 3.101641E-3
1.5237463E-3 6.0496167E-3
-6.4118295E-3 2.1074736E-3
-4.857616E-3 2.500868E-3
2.592551E-4 -1.4184744E-3
5.919797E-3 -9.5612893E-4
-1.2865482E-3 -6.4583328E-3
1.3410703E-3 5.755286E-3
1.5322443E-3 6.513581E-3
-8.507207E-3 1.323983E-3
3.8187173E-3 2.8948134E-4
2.2495414E-4 9.631341E-3
-5.925976E-3 -1.00574325E-4
-6.169615E-5 1.0459363E-2
-5.850188E-4 5.2605118E-3
-6.247298E-3 -2.0502585E-3
-9.016168E-3 -3.5170786E-4
1.0533981E-2 1.723108E-5
-9.128831E-3 -6.7513116E-4
8.107105E-3 1.6795114E-3
6.745988E-3 1.1526013E-3
8.124025E-3 8.2010997E-4
1.0016037E-2 3.7164944E-5
9.141155E-3 1.8486565E-4
-6.8592997E-3 1.1514298E-3
8.095304E-4 4.8520933E-3
1.0062429E-2 -2.341972E-4
-4.318303E-3 -3.6132853E-3
4.7305E-3 -1.478772E-3
-1.0367799E-2 -1.8457333E-4
-1.0340102E-2 2.352132E-5
-1.004379E-2 -3.3131335E-4
1.0127662E-2 3.4840417E-4
2.178201E-3 -5.2903323E-3
1.2319147E-3 -3.4647267E-3
-6.6478774E-3 -2.043898E-3
-1.0404563E-2 7.8697114E-5
-9.714583E-4 8.766817E-3
-9.781201E-3 6.563662E-4
-1.0530836E-2 -5.61495E-6
3.2175235E-3 5.202597E-3
2.4921629E-3 -2.7097594E-3
-6.9577894E-3 -1.5907219E-3
-8.441152E-3 -1.0193994E-5
1.0496646E-2 3.888427E-5
-8.56571E-3 -1.190915E-3
-7.142783E-3 1.4757506E-3
5.4532066E-3 1.193804E-3
8.495177E-3 1.0264093E-3
7.676434E-3 -1.4770943E-3
-1.0011726E-2 -2.6077256E-4
-8.407212E-3 -1.1504005E-3
6.550876E-3 7.7930006E-4
-1.0506488E-2 4.844526E-6
7.231806E-3 -2.4167413E-3
6.897692E-3 -2.2536456E-3
5.8786124E-3 1.0433629E-3
-7.851936E-3 -2.491662E-5
1.0420725E-2 5.2147767E-5
-9.642781E-3 -6.259874E-4
1.02747185E-2 2.1101903E-4
6.1643673E-3 2.797732E-3
7.7921334E-3 -1.8505314E-3
-2.4664039E-3 1.7885776E-4
-8.368047E-3 1.253023E-3
-7.0242225E-3 -1.2871099E-3
-5.300572E-3 -1.4676275E-3
8.163086E-3 0
6.514478E-3 8.399363E-4
-1.9302605E-4 1.012932E-2
-8.834385E-3 2.3231567E-4
1.7363437E-3 -3.1877893E-3
-8.565728E-3 4.9347733E-4
-1.0071604E-2 1.9689687E-4
-1.0506299E-2 -3.1143438E-5
-6.108533E-3 -1.6002146E-3
1.0329121E-2 4.4395956E-6
-9.350621E-3 8.806316E-4
1.0300336E-2 1.7509203E-4
7.600729E-3 -1.3724485E-3
3.9627207E-3 -4.591992E-3
1.033154E-2 -7.553614E-5
6.529753E-3 3.0556591E-3
-1.166335E-3 4.4771796E-4
-7.0209466E-3 -1.1635884E-3
9.682768E-3 -2.5823974E-4
4.7499756E-3 2.3752407E-3
1.0269669E-2 -1.7018287E-4
8.577938E-3 -1.7165932E-3
-6.6621653E-3 -2.3180163E-3
9.930389E-3 5.1563344E-4
-1.0109039E-2 3.999592E-4
-5.127336E-3 7.5123485E-6
1.0522341E-2 -7.35989E-6
-2.394684E-3 6.958048E-3
-4.1161813E-3 -2.0885724E-3
-6.326042E-4 8.256496E-3
-9.339293E-3 -1.5892086E-4
-1.0479572E-2 -2.9068375E-5
9.249065E-3 6.8587484E-4
9.2960885E-3 7.2897633E-4
6.9872597E-3 1.361476E-4
-9.731656E-3 -3.454534E-4
7.786072E-3 -7.380608E-4
-1.3322426E-3 -2.0788737E-4
7.5644767E-3 2.4805546E-3
7.105388E-3 9.960192E-4
1.4946443E-3 6.934406E-3
-7.4338433E-3 -1.6213593E-3
6.990941E-3 2.2387232E-3
-1.9381841E-3 2.9676217E-3
-1.0195907E-2 2.1936155E-4
8.3078705E-3 8.8547E-4
4.241833E-3 4.6581915E-3
8.654553E-3 -1.2182279E-3
-2.6129377E-5 -1.0459232E-2
-8.98216E-4 -7.797837E-3
8.664289E-3 7.537962E-5
-9.00946E-3 8.653235E-4
7.342091E-4 -8.564851E-3
-4.068659E-4 -1.2908116E-3
7.224697E-3 -2.776266E-3
2.1638394E-4 -9.256731E-3
1.0006016E-2 -4.7511602E-4
7.9387E-3 -1.653359E-3
-9.326137E-4 1.9262825E-3
-8.846237E-3 -9.768786E-4
-7.175374E-4 9.747409E-3
3.6111232E-4 -8.763378E-3
3.8797958E-4 -9.923742E-3
-6.652869E-3 1.931937E-3
3.0772788E-3 -1.619066E-4
1.1705343E-3 7.663059E-3
-4.7395206E-3 5.294876E-4
1.0269744E-3 8.35335E-3
7.440835E-5 4.2582992E-3
-5.19656E-3 -9.933782E-4
-7.2314613E-3 6.470367E-4
8.408322E-3 -1.0701369E-3
-7.354649E-3 4.0052328E-4
6.642615E-3 5.0614297E-4
5.5021713E-3 2.2569855E-4
6.5676896E-3 -1.8143553E-4
7.997032E-3 -1.0009357E-3
7.3140375E-3 -7.930433E-4
-5.355526E-3 1.6246722E-3
1.1452918E-3 3.7888736E-3
8.006134E-3 -1.2222666E-3
-3.8179697E-3 -2.4392204E-3
3.622975E-3 -1.6668629E-3
-8.292921E-3 9.1949187E-4
-8.249405E-3 1.08271E-3
-8.049446E-3 7.690485E-4
8.118139E-3 -7.6403894E-4
1.193948E-3 -4.446027E-3
6.266173E-4 -2.891751E-3
-5.5155843E-3 -9.4708486E-4
-8.29517E-3 1.1333751E-3
1.2679334E-4 7.0962375E-3
-7.738264E-3 1.5302383E-3
-8.404616E-3 1.0790832E-3
3.1030343E-3 3.820821E-3
1.7100292E-3 -2.4189288E-3
-5.716278E-3 -5.5354356E-4
-6.7374343E-3 8.6041214E-4
8.380756E-3 -1.0490151E-3
-6.9583263E-3 -6.90351E-5
-5.5483878E-3 1.9126623E-3
4.474718E-3 3.9159998E-4
6.885112E-3 -5.49898E-5
5.974124E-3 -1.9686446E-3
-8.0166E-3 8.22044E-4
-6.8276697E-3 -5.3011496E-5
5.3080535E-3 -5.2135365E-5
-8.38411E-3 1.0849254E-3
5.5226083E-3 -2.6727712E-3
5.272754E-3 -2.5082356E-3
4.79873E-3 2.2776975E-4
-6.268731E-3 7.880363E-4
8.321532E-3 -1.0306188E-3
-7.7597448E-3 4.926252E-4
8.221359E-3 -8.888095E-4
5.2072885E-3 1.5984258E-3
6.0280324E-3 -2.278567E-3
-1.9498878E-3 3.9651504E-4
-6.5491158E-3 1.8609894E-3
-5.7380535E-3 -3.0441294E-4
-4.381085E-3 -6.2582747E-4
6.514478E-3 -8.399363E-4
5.285245E-3 0
8.8820857E-4 8.103474E-3
-7.0262975E-3 1.0944067E-3
1.0576677E-3 -2.7226468E-3
-6.7850268E-3 1.275181E-3
-8.017293E-3 1.1934438E-3
-8.3876625E-3 1.0561863E-3
-5.0395136E-3 -6.485027E-4
8.243518E-3 -1.0592659E-3
-7.3715663E-3 1.6649067E-3
8.238107E-3 -9.201167E-4
5.9244763E-3 -1.8773429E-3
2.6899234E-3 -4.07234E-3
8.23722E-3 -1.1233393E-3
5.525421E-3 1.7666661E-3
-8.8471535E-4 4.7730675E-4
-5.72273E-3 -2.0617469E-4
7.700674E-3 -1.2023889E-3
4.0350743E-3 1.4067936E-3
8.1781065E-3 -1.192505E-3
6.6689188E-3 -2.2525338E-3
-5.555192E-3 -1.1643722E-3
7.977914E-3 -6.1028503E-4
-8.026274E-3 1.3593478E-3
-4.091051E-3 5.335695E-4
8.396503E-3 -1.088564E-3
-1.1951117E-3 5.799207E-3
-3.4997836E-3 -1.2432341E-3
3.447033E-4 6.6541135E-3
-7.469491E-3 8.341356E-4
-8.366119E-3 1.0550919E-3
7.451705E-3 -4.0432112E-4
7.4936673E-3 -3.7476246E-4
5.5901282E-3 -6.102988E-4
-7.801806E-3 7.2564743E-4
6.137663E-3 -1.3901463E-3
-1.0845747E-3 -2.8822305E-5
6.291997E-3 1.2012417E-3
5.772876E-3 6.375942E-5
1.9062994E-3 5.38015E-3
-6.099341E-3 -5.290099E-4
5.80941E-3 1.0672641E-3
-1.2413986E-3 2.5677118E-3
-8.1141805E-3 1.2241616E-3
6.721131E-3 -1.4819244E-4
3.864459E-3 3.280967E-3
6.78134E-3 -1.862701E-3
-1.0970489E-3 -8.344207E-3
-1.5191672E-3 -6.1305715E-3
6.9222143E-3 -8.3135127E-4
-7.100882E-3 1.6175869E-3
-2.9534675E-4 -6.910649E-3
-4.5751303E-4 -9.882564E-4
5.479942E-3 -2.9589555E-3
-7.7978265E-4 -7.409516E-3
7.936323E-3 -1.4087255E-3
6.1652865E-3 -2.1362961E-3
-5.460602E-4 1.6332131E-3
-7.1601747E-3 1.3063916E-4
4.3032976E-4 7.852662E-3
-6.135206E-4 -7.0306915E-3
-7.1147404E-4 -7.959475E-3
1.8440523E-3 1.0525021E-2
2.689106E-4 -4.745372E-3
1.1945913E-2 -5.068835E-4
1.5327176E-5 7.3557384E-3
1.29801575E-2 -1.7076709E-4
6.5414393E-3 6.015406E-4
-2.3963777E-3 7.800558E-3
-2.2322506E-4 1.11962E-2
-2.2770694E-4 -1.3071698E-2
-6.2188774E-4 1.1343647E-2
1.8923515E-3 -1.0099569E-2
1.2707103E-3 -8.398142E-3
8.2554686E-4 -1.0100243E-2
-1.9072414E-4 -1.2429469E-2
1.3240728E-5 -1.1347345E-2
1.5909697E-3 8.484265E-3
6.00167E-3 -1.1192546E-3
-5.2854564E-4 -1.2480618E-2
-4.381502E-3 5.443888E-3
-1.9468206E-3 -5.8349627E-3
1.6127278E-5 1.2869445E-2
2.736909E-4 1.2830155E-2
-1.7361909E-4 1.2470861E-2
1.9284351E-4 -1.2575339E-2
-6.6161156E-3 -2.5777658E-3
-4.3284018E-3 -1.4467172E-3
-2.3790128E-3 8.297475E-3
3.436808E-4 1.2908838E-2
1.0901443E-2 9.981503E-4
1.0457524E-3 1.2121668E-2
2.4204659E-4 1.3067519E-2
6.3796593E-3 -4.1155466E-3
-3.4213865E-3 -3.0283723E-3
-1.8093525E-3 8.67132E-3
1.869517E-4 1.0474605E-2
-1.9995541E-4 -1.3025883E-2
-1.2752234E-3 1.0657083E-2
2.0001126E-3 8.8283615E-3
1.3524067E-3 -6.7949435E-3
1.0727608E-3 -1.0565672E-2
-2.014399E-3 -9.490521E-3
-8.684532E-5 1.2429407E-2
-1.228698E-3 1.045945E-2
8.121057E-4 -8.147206E-3
2.544498E-4 1.303706E-2
-3.169864E-3 -8.916576E-3
-2.9595827E-3 -8.505843E-3
1.1556698E-3 -7.3192585E-3
1.5474999E-4 9.743813E-3
-1.8170143E-4 -1.2931988E-2
-5.4875313E-4 1.1980229E-2
1.8889015E-5 -1.2754568E-2
3.325855E-3 -7.7153267E-3
-2.4805216E-3 -9.625258E-3
2.8026005E-4 3.0562547E-3
1.7527096E-3 1.035402E-2
-1.4310386E-3 8.746574E-3
-1.6957948E-3 6.6120196E-3
-1.9302605E-4 -1.012932E-2
8.8820857E-4 -8.103474E-3
1.2573724E-2 0
4.9717294E-4 1.095682E-2
-3.9966865E-3 -2.0791958E-3
8.1488735E-4 1.06172785E-2
4.8247832E-4 1.2492885E-2
2.0978878E-4 1.3037677E-2
-1.8412131E-3 7.617728E-3
-2.3873559E-4 -1.2817189E-2
1.3138548E-3 1.1582071E-2
-2.6297692E-5 -1.2785508E-2
-1.8827568E-3 -9.399056E-3
-5.791764E-3 -4.808634E-3
-3.380321E-4 -1.2818301E-2
3.6372687E-3 -8.174823E-3
5.8313867E-4 1.4366818E-3
-1.2778424E-3 8.73959E-3
-5.494024E-4 -1.2008939E-2
2.835044E-3 -5.950263E-3
-4.540129E-4 -1.273929E-2
-2.3329023E-3 -1.0603506E-2
-2.7188198E-3 8.321686E-3
4.0501714E-4 -1.2334504E-2
7.3533726E-4 1.25345355E-2
1.3056355E-4 6.3621737E-3
-2.579454E-4 -1.3056672E-2
8.690651E-3 2.8069578E-3
-2.4943124E-3 5.1570283E-3
1.0260187E-2 5.897446E-4
2.3638E-5 1.1592597E-2
2.117317E-4 1.3004463E-2
6.3237565E-4 -1.1493095E-2
6.847475E-4 -1.1552465E-2
3.7191776E-6 -8.673492E-3
-1.9854627E-4 1.2083878E-2
-1.0999473E-3 -9.644043E-3
-2.2645846E-4 1.6580543E-3
2.8991725E-3 -9.445179E-3
1.0679142E-3 -8.840407E-3
8.569347E-3 -2.01863E-3
-1.8361122E-3 9.262764E-3
2.6126532E-3 -8.727779E-3
3.72826E-3 2.3348595E-3
5.1329285E-4 1.2646598E-2
9.023027E-4 -1.0329916E-2
5.679902E-3 -5.3737075E-3
-1.7163082E-3 -1.07103605E-2
-1.2977919E-2 2.7974372E-4
-9.6548535E-3 1.2989574E-3
-1.11341564E-4 -1.0753031E-2
1.2867923E-3 1.1159098E-2
-1.064522E-2 -7.085314E-4
-1.5921071E-3 5.3539005E-4
-3.615819E-3 -8.899254E-3
-1.1491506E-2 -4.961817E-5
-8.2616037E-4 -1.240492E-2
-2.2393214E-3 -9.81179E-3
2.4123169E-3 1.1117021E-3
-1.0029989E-3 1.100012E-2
1.21122245E-2 6.598812E-4
-1.0882743E-2 -2.4087245E-4
-1.2323238E-2 -2.467732E-4
9.244484E-3 -1.1907528E-3
-4.124514E-3 -4.2196526E-4
3.064744E-5 -1.0429785E-2
6.410442E-3 2.7749423E-4
3.6443592E-4 -1.1317742E-2
7.828389E-4 -5.676465E-3
6.7027006E-3 2.3966571E-3
9.747612E-3 6.3722424E-4
-1.1399762E-2 -3.1843773E-4
9.860334E-3 9.904514E-4
-8.726003E-3 -2.0483497E-3
-7.2679482E-3 -1.4393725E-3
-8.768771E-3 -1.1187561E-3
-1.0838658E-2 -3.2527032E-4
-9.887624E-3 -4.6021896E-4
7.4561485E-3 -1.050908E-3
-7.380157E-4 -5.2741487E-3
-1.0896588E-2 -3.2913176E-5
4.5705903E-3 4.0333224E-3
-5.1616007E-3 1.4657534E-3
1.1215152E-2 4.9481203E-4
1.1191098E-2 2.6881628E-4
1.086032E-2 6.4439833E-4
-1.0950604E-2 -6.6528155E-4
-2.5078864E-3 5.663397E-3
-1.4318258E-3 3.7145922E-3
7.1364036E-3 2.4011736E-3
1.1262431E-2 2.109373E-4
1.3008442E-3 -9.460117E-3
1.06042465E-2 -4.3197713E-4
1.1396688E-2 3.0577675E-4
-3.3340575E-3 -5.722006E-3
-2.774226E-3 2.8616735E-3
7.4846987E-3 1.91955E-3
9.135027E-3 2.512616E-4
-1.1358741E-2 -3.4080888E-4
9.236226E-3 1.5326253E-3
7.7721756E-3 -1.3938319E-3
-5.867681E-3 -1.447172E-3
-9.164575E-3 -1.3525834E-3
-8.349749E-3 1.3800988E-3
1.0827627E-2 5.671437E-4
9.065846E-3 1.4842678E-3
-7.067414E-3 -1.0298195E-3
1.13706365E-2 2.9376423E-4
-7.895298E-3 2.4096721E-3
-7.529067E-3 2.242673E-3
-6.3323523E-3 -1.296466E-3
8.496938E-3 2.5042612E-4
-1.1276198E-2 -3.5300275E-4
1.0417948E-2 9.518928E-4
-1.1113662E-2 -5.2078365E-4
-6.591677E-3 -3.203239E-3
-8.485591E-3 1.7809531E-3
2.674321E-3 -1.2337421E-4
9.091861E-3 -1.1179178E-3
7.5652353E-3 1.5928607E-3
5.694702E-3 1.7391695E-3
-8.834385E-3 -2.3231567E-4
-7.0262975E-3 -1.0944067E-3
4.9717294E-4 -1.095682E-2
9.567499E-3 0
-1.9698555E-3 3.4005248E-3
9.284183E-3 -2.902841E-4
1.0905454E-2 7.3541574E-5
1.1369407E-2 3.3270664E-4
6.565333E-3 1.9056541E-3
-1.1178419E-2 -2.9876365E-4
1.0144639E-2 -6.8693876E-4
-1.114241E-2 -4.826308E-4
-8.264841E-3 1.2690019E-3
-4.4192835E-3 4.8568426E-3
-1.1183313E-2 -2.1228015E-4
-6.979771E-3 -3.4927758E-3
1.2749912E-3 -4.5134343E-4
7.565205E-3 1.4590883E-3
-1.0486389E-2 3.9118854E-6
-5.0729965E-3 -2.7057517E-3
-1.1119048E-2 -1.0808911E-4
-9.332205E-3 1.6136365E-3
7.1440646E-3 2.6982406E-3
-1.0732348E-2 -8.406484E-4
1.0951747E-2 -1.4515404E-4
5.5492003E-3 1.377903E-4
-1.1387865E-2 -2.914932E-4
2.789634E-3 -7.4620983E-3
4.3952395E-3 2.3774714E-3
9.1960124E-4 -8.917472E-3
1.0102795E-2 4.377799E-4
1.1340542E-2 3.2969975E-4
-9.99015E-3 -1.0055001E-3
-1.0039814E-2 -1.0534847E-3
-7.5579877E-3 -3.4619618E-4
1.0522116E-2 6.508183E-4
-8.447371E-3 5.7716935E-4
1.4358844E-3 2.628979E-4
-8.115953E-3 -2.8998246E-3
-7.66136E-3 -1.280142E-3
-1.4202093E-3 -7.5471993E-3
7.999029E-3 1.9662553E-3
-7.5021354E-3 -2.6217839E-3
2.1820287E-3 -3.156507E-3
1.1040619E-2 5.276736E-5
-8.965875E-3 -1.1947228E-3
-4.458095E-3 -5.1619816E-3
-9.400938E-3 1.0721075E-3
-2.6938424E-4 1.1320099E-2
7.501603E-4 8.4646605E-3
-9.3746595E-3 -3.2815768E-4
9.774988E-3 -6.800814E-4
-1.0383369E-3 9.248295E-3
4.0358934E-4 1.4085418E-3
-7.897836E-3 2.7989652E-3
-4.976185E-4 1.0011808E-2
-1.084239E-2 2.2942341E-4
-8.638598E-3 1.5633947E-3
1.0641286E-3 -2.0581505E-3
9.545914E-3 1.3089709E-3
1.0539495E-3 -1.0528575E-2
-6.4020837E-4 9.473765E-3
-7.0230785E-4 1.0728789E-2
-2.3265725E-3 -3.0405526E-3
6.992207E-4 1.5528324E-3
-3.7133128E-3 2.136499E-3
-1.2212197E-3 -2.3355621E-3
-4.097638E-3 2.200684E-3
-2.1787344E-3 8.904891E-4
-5.281903E-4 -2.8757532E-3
-1.7804535E-3 -3.5957394E-3
2.23392E-3 4.1173194E-3
-1.6781164E-3 -3.70853E-3
1.0685653E-3 3.5231716E-3
9.848117E-4 2.8795605E-3
1.4077716E-3 3.3469782E-3
2.1159656E-3 3.9192955E-3
1.872193E-3 3.6090594E-3
-1.9086675E-3 -2.433727E-3
-1.7226118E-3 1.3482049E-3
2.2318035E-3 3.879692E-3
4.925019E-4 -2.4549223E-3
1.5836885E-3 1.5327757E-3
-2.1332228E-3 -4.0880176E-3
-2.2085947E-3 -4.0329387E-3
-2.0069997E-3 -3.9927005E-3
2.0181658E-3 4.029089E-3
2.5292605E-3 -2.7467412E-4
1.6150565E-3 -2.5589232E-4
-6.158802E-4 -3.030832E-3
-2.2438532E-3 -4.046375E-3
-3.63019E-3 1.4853944E-3
-2.336847E-3 -3.6800702E-3
-2.237787E-3 -4.1136197E-3
-1.3472916E-3 2.3631118E-3
1.5882956E-3 3.9683736E-4
-8.5877156E-4 -3.055463E-3
-1.7915091E-3 -3.298546E-3
2.2175226E-3 4.1073454E-3
-1.3569169E-3 -3.5983345E-3
-2.0956178E-3 -2.4754456E-3
6.937381E-4 2.383477E-3
1.4061556E-3 3.5357992E-3
2.2096536E-3 2.6835576E-3
-2.0277267E-3 -3.9651752E-3
-1.3390245E-3 -3.5278213E-3
1.0890889E-3 2.723963E-3
-2.2366932E-3 -4.1018873E-3
2.4820224E-3 2.3100553E-3
2.3472633E-3 2.2142713E-3
8.4297406E-4 2.5176036E-3
-1.6604296E-3 -3.0715815E-3
2.1961941E-3 4.0805186E-3
-1.8066285E-3 -3.8987806E-3
2.103096E-3 4.0572938E-3
2.1865247E-4 3.0023602E-3
2.3800954E-3 2.649307E-3
-5.94467E-4 -9.251179E-4
-2.2692617E-3 -3.0013025E-3
-9.914666E-4 -3.0168253E-3
-5.5434037E-4 -2.3821155E-3
1.7363437E-3 3.1877893E-3
1.0576677E-3 2.7226468E-3
-3.9966865E-3 2.0791958E-3
-1.9698555E-3 -3.4005248E-3
1.6142044E-3 0
-2.0146975E-3 -3.2400603E-3
-2.219189E-3 -3.8912087E-3
-2.2225988E-3 -4.109469E-3
-6.7442196E-4 -2.7258366E-3
2.1953396E-3 4.0345974E-3
-2.332838E-3 -3.4642206E-3
2.1225754E-3 4.059656E-3
2.152685E-3 2.6762527E-3
2.6361293E-3 5.707453E-4
2.2270863E-3 4.018531E-3
1.9564875E-4 3.1999112E-3
-4.229269E-4 -3.6023598E-4
-1.0390066E-3 -2.9892724E-3
2.1604358E-3 3.7263148E-3
8.279002E-5 2.3601556E-3
2.2508868E-3 3.974238E-3
2.4949368E-3 2.9846637E-3
-5.118725E-4 -3.094718E-3
1.9108995E-3 3.9876224E-3
-2.30645E-3 -3.8626348E-3
-1.0935526E-3 -2.000692E-3
2.241047E-3 4.1075433E-3
-3.226572E-3 5.4486905E-4
-5.9925394E-5 -2.0516748E-3
-3.358826E-3 1.5091724E-3
-1.92447E-3 -3.680917E-3
-2.2177245E-3 -4.09859E-3
1.6994955E-3 3.757768E-3
1.6926662E-3 3.7852991E-3
1.4330697E-3 2.7575733E-3
-1.9350849E-3 -3.8738162E-3
1.9443721E-3 2.8835703E-3
-2.0219432E-4 -5.6447677E-4
6.403269E-4 3.4816551E-3
1.1224058E-3 2.9866048E-3
-2.3900531E-3 2.0586725E-3
-9.480672E-4 -3.247885E-3
6.127703E-4 3.2062435E-3
-1.571159E-3 -1.256525E-4
-2.2544016E-3 -3.934972E-3
1.4213527E-3 3.432675E-3
-9.1681676E-4 2.6473189E-3
2.3166155E-3 3.1205884E-3
4.078905E-3 -2.234953E-3
2.854098E-3 -2.0094172E-3
1.8135163E-3 3.3995493E-3
-2.2542928E-3 -3.3342494E-3
3.5008553E-3 -1.5350836E-3
4.1753528E-4 -4.3345068E-4
2.6209091E-3 2.2308058E-3
3.6608977E-3 -1.8844685E-3
2.3138858E-3 3.8064166E-3
2.3342727E-3 2.7484829E-3
-9.5061114E-4 4.5535737E-5
-1.5001707E-3 -3.6623569E-3
-3.959113E-3 1.7931319E-3
3.4990222E-3 -1.7230107E-3
3.9578737E-3 -1.9593358E-3
9.00686E-3 -8.750077E-4
-3.9895745E-3 -5.346105E-4
3.461864E-4 -1.0120004E-2
6.2121935E-3 4.637741E-4
6.9703197E-4 -1.097154E-2
9.3188474E-4 -5.4846196E-3
6.4315014E-3 2.5290507E-3
9.439628E-3 9.1410376E-4
-1.1052526E-2 -6.5488426E-4
9.538295E-3 1.260291E-3
-8.405456E-3 -2.252446E-3
-7.0090545E-3 -1.6172635E-3
-8.475163E-3 -1.3516776E-3
-1.050783E-2 -6.4449024E-4
-9.580864E-3 -7.4658793E-4
7.267239E-3 -7.9356326E-4
-5.5614003E-4 -5.1403595E-3
-1.0572915E-2 -3.6254828E-4
4.3128706E-3 4.052561E-3
-5.0532254E-3 1.2657425E-3
1.0868031E-2 8.204348E-4
1.0851547E-2 6.0040166E-4
1.0519168E-2 9.5482526E-4
-1.06061455E-2 -9.778294E-4
-2.6054531E-3 5.4195994E-3
-1.5021292E-3 3.5611512E-3
6.8522245E-3 2.5465924E-3
1.0922523E-2 5.464008E-4
1.5493493E-3 -9.140511E-3
1.0303335E-2 -9.744506E-5
1.1049927E-2 6.42505E-4
-3.0617183E-3 -5.653721E-3
-2.7788996E-3 2.6927604E-3
7.204818E-3 2.0897985E-3
8.856894E-3 5.209841E-4
-1.1012041E-2 -6.753487E-4
8.916218E-3 1.7674738E-3
7.5843125E-3 -1.1167441E-3
-5.6500165E-3 -1.5823471E-3
-8.852152E-3 -1.5905896E-3
-8.144367E-3 1.0858937E-3
1.0489789E-2 8.788667E-4
8.752352E-3 1.7153788E-3
-6.8268855E-3 -1.2137543E-3
1.1025012E-2 6.300579E-4
-7.734611E-3 2.098767E-3
-7.3741577E-3 1.9478246E-3
-6.1055003E-3 -1.4502022E-3
8.237725E-3 5.008136E-4
-1.0931572E-2 -6.846771E-4
1.0080566E-2 1.2397924E-3
-1.0768759E-2 -8.42558E-4
-6.2992936E-3 -3.3083796E-3
-8.288348E-3 1.4707561E-3
2.598871E-3 -3.8580067E-5
8.856548E-3 -8.089602E-4
7.2928816E-3 1.7752266E-3
5.4733003E-3 1.8604493E-3
-8.565728E-3 -4.9347733E-4
-6.7850268E-3 -1.275181E-3
8.1488735E-4 -1.06172785E-2
9.284183E-3 2.902841E-4
-2.0146975E-3 3.2400603E-3
9.018063E-3 0
1.0580286E-2 4.0224282E-4
1.1022638E-2 6.678095E-4
6.3130986E-3 2.0484198E-3
-1.08383335E-2 -6.2907767E-4
9.865074E-3 -3.5880186E-4
-1.0797814E-2 -8.064074E-4
-8.058601E-3 9.806628E-4
-4.4357777E-3 4.578936E-3
-1.0845708E-2 -5.453031E-4
-6.66711E-3 -3.6011178E-3
1.2509297E-3 -3.99294E-4
7.296911E-3 1.6454144E-3
-1.0175979E-2 -3.1436808E-4
-4.8406785E-3 -2.7795457E-3
-1.0786506E-2 -4.4224795E-4
-9.104815E-3 1.2827073E-3
6.8506454E-3 2.8350952E-3
-1.0389033E-2 -1.1413818E-3
1.06318435E-2 1.9142748E-4
5.3806948E-3 3.0207646E-4
-1.1041798E-2 -6.283772E-4
2.9334312E-3 -7.156488E-3
4.1929516E-3 2.4404232E-3
1.1629318E-3 -8.625504E-3
9.790344E-3 7.3134166E-4
1.09947175E-2 6.6401635E-4
-9.66381E-3 -1.2788328E-3
-9.710547E-3 -1.3269029E-3
-7.323674E-3 -5.6525914E-4
1.0190784E-2 9.5079426E-4
-8.214736E-3 3.0377932E-4
1.3853878E-3 2.9867853E-4
-7.787637E-3 -3.0601975E-3
-7.3956484E-3 -1.4746847E-3
-1.1491665E-3 -7.3667984E-3
7.7025015E-3 2.1507253E-3
-7.200432E-3 -2.7717664E-3
2.213184E-3 -2.996831E-3
1.0712079E-2 3.8618463E-4
-8.664126E-3 -1.4313752E-3
-4.169462E-3 -5.144384E-3
-9.155082E-3 7.5512886E-4
-6.048664E-4 1.0976709E-2
4.711228E-4 8.236762E-3
-9.087096E-3 -6.028739E-4
9.50616E-3 -3.633626E-4
-1.2881889E-3 8.942926E-3
3.4890196E-4 1.3790766E-3
-7.7488846E-3 2.4764556E-3
-7.8664796E-4 9.700236E-3
-1.0528281E-2 -1.0633563E-4
-8.430223E-3 1.2549977E-3
1.0950628E-3 -1.9649172E-3
9.223521E-3 1.5598385E-3
1.3421832E-3 -1.0184821E-2
-9.086905E-4 9.1738E-3
-1.0070296E-3 1.0389774E-2
1.0528114E-2 -1.4283309E-3
-4.7045453E-3 -4.4927082E-4
-4.5236713E-5 -1.1888561E-2
7.3090345E-3 2.670254E-4
3.2840486E-4 -1.2903258E-2
8.4868114E-4 -6.4763003E-3
7.6584537E-3 2.6802935E-3
1.1115652E-2 6.5140985E-4
-1.2996394E-2 -2.7534316E-4
1.12468535E-2 1.0531668E-3
-9.962024E-3 -2.267725E-3
-8.295388E-3 -1.5847936E-3
-1.0003628E-2 -1.2078054E-3
-1.2356876E-2 -2.874447E-4
-1.1273883E-2 -4.485756E-4
8.490766E-3 -1.2551835E-3
-8.817628E-4 -6.006032E-3
-1.242066E-2 4.6242127E-5
5.240761E-3 4.5622247E-3
-5.872152E-3 1.710405E-3
1.2787323E-2 4.7780172E-4
1.275817E-2 2.203869E-4
1.2384021E-2 6.510342E-4
-1.2487089E-2 -6.741441E-4
-2.815066E-3 6.4746654E-3
-1.603505E-3 4.24506E-3
8.152842E-3 2.6821077E-3
1.2839032E-2 1.5386574E-4
1.4100428E-3 -1.0793054E-2
1.2083864E-2 -5.7389704E-4
1.2992794E-2 2.60936E-4
-3.8442872E-3 -6.4965645E-3
-3.1401876E-3 3.2831852E-3
8.546142E-3 2.130455E-3
1.0414435E-2 2.1618148E-4
-1.2949809E-2 -3.0115867E-4
1.0539635E-2 1.6759575E-3
8.848351E-3 -1.6484922E-3
-6.699363E-3 -1.604447E-3
-1.045658E-2 -1.4712893E-3
-9.5068E-3 1.6372781E-3
1.2346162E-2 5.6322734E-4
1.0345057E-2 1.6221477E-3
-8.063664E-3 -1.1195086E-3
1.2963006E-2 2.4744362E-4
-8.980884E-3 2.8073378E-3
-8.564722E-3 2.6141696E-3
-7.2278567E-3 -1.4290942E-3
9.687106E-3 2.201336E-4
-1.2855817E-2 -3.1569184E-4
1.1882149E-2 1.0049301E-3
-1.2671841E-2 -5.081857E-4
-7.538105E-3 -3.6005243E-3
-9.658558E-3 2.0952339E-3
3.0473596E-3 -1.6118375E-4
1.0354707E-2 -1.3441371E-3
8.63543E-3 1.7574611E-3
6.504439E-3 1.9386086E-3
-1.0071604E-2 -1.9689687E-4
-8.017293E-3 -1.1934438E-3
4.8247832E-4 -1.2492885E-2
1.0905454E-2 -7.3541574E-5
-2.219189E-3 3.8912087E-3
1.0580286E-2 -4.0224282E-4
1.2431079E-2 0
1.2961905E-2 2.918412E-4
7.4981013E-3 2.121683E-3
-1.2743946E-2 -2.5462016E-4
1.1558022E-2 -8.609811E-4
-1.27043165E-2 -4.644764E-4
-9.410872E-3 1.5099923E-3
-4.99996E-3 5.5700107E-3
-1.2748861E-2 -1.5600421E-4
-7.982696E-3 -3.927568E-3
1.4498213E-3 -5.242613E-4
8.634367E-3 1.6049817E-3
-1.1952813E-2 8.506338E-5
-5.8032214E-3 -3.0451398E-3
-1.2674808E-2 -3.773697E-5
-1.0624853E-2 1.9110263E-3
8.163857E-3 3.020659E-3
-1.2239662E-2 -8.7571226E-4
1.2482164E-2 -2.4963496E-4
6.32628E-3 1.1440476E-4
-1.2982626E-2 -2.4472296E-4
3.1223886E-3 -8.527068E-3
5.0281608E-3 2.676161E-3
9.796561E-4 -1.0171593E-2
1.1518973E-2 4.2134445E-4
1.29289795E-2 2.8863552E-4
-1.1394938E-2 -1.0693226E-3
-1.1451917E-2 -1.1236356E-3
-8.6175855E-3 -3.3651403E-4
1.19985705E-2 6.609517E-4
-9.6242465E-3 7.2281493E-4
1.6387047E-3 2.886254E-4
-9.273208E-3 -3.2429628E-3
-8.742593E-3 -1.400272E-3
-1.6768292E-3 -8.5917115E-3
9.132757E-3 2.1797377E-3
-8.571413E-3 -2.930758E-3
2.4629089E-3 -3.6146971E-3
1.2584986E-2 -2.4718627E-5
-1.0228881E-2 -1.2928802E-3
-5.12121E-3 -5.849585E-3
-1.070736E-2 1.2942966E-3
-2.2004294E-4 1.2905215E-2
9.201306E-4 9.642624E-3
-1.0688169E-2 -3.0198926E-4
1.113673E-2 -8.5032324E-4
-1.1124536E-3 1.0549592E-2
4.7085565E-4 1.6024152E-3
-8.980785E-3 3.2510904E-3
-4.902505E-4 1.1415721E-2
-1.2356866E-2 3.4484803E-4
-9.834635E-3 1.8484272E-3
1.1971201E-3 -2.3541495E-3
1.0890911E-2 1.4186463E-3
1.1204084E-3 -1.2009031E-2
-6.569158E-4 1.0803532E-2
-7.180534E-4 1.223454E-2
1.0944148E-2 -1.7364884E-3
-4.915984E-3 -3.5800805E-4
-3.262729E-4 -1.2395159E-2
7.627411E-3 1.0683529E-4
3.950183E-5 -1.3461958E-2
7.3287886E-4 -6.772773E-3
8.048406E-3 2.6149505E-3
1.1605601E-2 4.1826724E-4
-1.3557825E-2 1.8012073E-5
1.1751835E-2 8.340996E-4
-1.0440656E-2 -2.1306851E-3
-8.68682E-3 -1.4577184E-3
-1.0459154E-2 -1.0245277E-3
-1.2891281E-2 -9.6199365E-6
-1.1765826E-2 -2.030562E-4
8.823868E-3 -1.5081172E-3
-1.0604173E-3 -6.241798E-3
-1.2949956E-2 3.3981283E-4
5.571656E-3 4.6340027E-3
-6.0827467E-3 1.921301E-3
1.3344578E-2 1.9800027E-4
1.3308137E-2 -6.972198E-5
1.2928122E-2 3.880979E-4
-1.3036134E-2 -4.0977506E-4
-2.7832699E-3 6.8172314E-3
-1.572317E-3 4.463976E-3
8.563947E-3 2.605236E-3
1.3390891E-2 -1.4098195E-4
1.2168679E-3 -1.1287037E-2
1.258639E-2 -8.8209315E-4
1.3553732E-2 -3.2950175E-5
-4.160962E-3 -6.683727E-3
-3.1972E-3 3.4971032E-3
8.961091E-3 2.0207933E-3
1.0864222E-2 -1.9084162E-5
-1.3509856E-2 -9.9996605E-6
1.10290395E-2 1.5000873E-3
9.187488E-3 -1.9266157E-3
-7.0231035E-3 -1.5156802E-3
-1.0937633E-2 -1.2886296E-3
-9.874318E-3 1.9303808E-3
1.2886586E-2 2.9743055E-4
1.082489E-2 1.4485482E-3
-8.434277E-3 -9.780051E-4
1.3522356E-2 -4.6319376E-5
-9.2984745E-3 3.138057E-3
-8.869076E-3 2.92687E-3
-7.570048E-3 -1.320432E-3
1.0105928E-2 2.112467E-6
-1.34121915E-2 -2.7360024E-5
1.2413127E-2 7.688879E-4
-1.3224878E-2 -2.323925E-4
-7.9445215E-3 -3.5773024E-3
-1.0021804E-2 2.4114545E-3
3.1737022E-3 -2.3960868E-4
1.0765313E-2 -1.6446287E-3
9.045434E-3 1.6297755E-3
6.8277004E-3 1.8686872E-3
-1.0506299E-2 3.1143438E-5
-8.3876625E-3 -1.0561863E-3
2.0978878E-4 -1.3037677E-2
1.1369407E-2 -3.3270664E-4
-2.2225988E-3 4.109469E-3
1.1022638E-2 -6.678095E-4
1.2961905E-2 -2.918412E-4
1.352225E-2 0
7.868092E-3 2.036251E-3
-1.3294109E-2 3.369336E-5
1.2031354E-2 -1.1690906E-3
-1.3257715E-2 -1.8605443E-4
-9.777281E-3 1.7954079E-3
-5.0827004E-3 5.9252414E-3
-1.3296919E-2 1.3663547E-4
-8.415776E-3 -3.9078738E-3
1.499423E-3 -5.8068516E-4
9.040748E-3 1.4708099E-3
-1.246122E-2 3.693089E-4
-6.1225174E-3 -3.0389316E-3
-1.3216928E-2 2.582145E-4
-1.1033686E-2 2.242067E-3
8.583383E-3 2.9579855E-3
-1.2782873E-2 -6.2575977E-4
1.3009311E-2 -5.53335E-4
6.599108E-3 -2.9230387E-5
-1.354275E-2 4.9616545E-5
3.0555315E-3 -8.964491E-3
5.305699E-3 2.6723926E-3
7.826934E-4 -1.0628935E-2
1.20207425E-2 1.6890872E-4
1.3487843E-2 -2.5694362E-6
-1.1906624E-2 -8.474684E-4
-1.1967311E-2 -9.0276287E-4
-8.99347E-3 -1.4857115E-4
1.2526445E-2 4.074882E-4
-1.0018247E-2 9.796261E-4
1.7154559E-3 2.6247874E-4
-9.745322E-3 -3.1637375E-3
-9.148789E-3 -1.2548179E-3
-1.9501374E-3 -8.919224E-3
9.573913E-3 2.0584087E-3
-9.006231E-3 -2.8546772E-3
2.4832175E-3 -3.8268713E-3
1.3121803E-2 -3.212279E-4
-1.0696022E-2 -1.1079478E-3
-5.477222E-3 -5.9791417E-3
-1.1134194E-2 1.6009385E-3
7.353345E-5 1.3461453E-2
1.1857986E-3 1.0032777E-2
-1.115166E-2 -6.396148E-5
1.1592323E-2 -1.1480871E-3
-9.122873E-4 1.1026192E-2
5.2858144E-4 1.6597866E-3
-9.287952E-3 3.6007564E-3
-2.4318088E-4 1.1914698E-2
-1.2876428E-2 6.496726E-4
-1.0211194E-2 2.1582427E-3
1.1929712E-3 -2.4827796E-3
1.1389275E-2 1.2235416E-3
8.863185E-4 -1.2548138E-2
-4.31336E-4 1.1280282E-2
-4.6148823E-4 1.2773831E-2
6.106501E-3 -2.6584244E-3
-2.914338E-3 5.319631E-4
-2.0563735E-3 -7.1631474E-3
4.454193E-3 -1.0864116E-3
-2.004187E-3 -7.838959E-3
-5.9344486E-4 -4.0511843E-3
5.0768396E-3 3.0957093E-4
6.8158503E-3 -1.5042581E-3
-7.88608E-3 2.0520885E-3
6.9635576E-3 -1.2843215E-3
-6.395878E-3 3.3244258E-4
-5.2740467E-3 4.5991485E-4
-6.2400694E-3 9.788595E-4
-7.5024036E-3 1.9356387E-3
-6.8766717E-3 1.6536086E-3
4.9071787E-3 -2.206261E-3
-1.55694E-3 -3.4721857E-3
-7.483924E-3 2.1477963E-3
3.9397506E-3 1.8573443E-3
-3.2500036E-3 2.033905E-3
7.794528E-3 -1.8942876E-3
7.733009E-3 -2.0445776E-3
7.580832E-3 -1.7209641E-3
-7.6469462E-3 1.7246166E-3
-5.929064E-4 4.3858113E-3
-2.4266384E-4 2.8341885E-3
5.375351E-3 2.2628541E-4
7.77043E-3 -2.0985028E-3
-9.916109E-4 -6.7507476E-3
7.19072E-3 -2.4085813E-3
7.881449E-3 -2.0601642E-3
-3.4275788E-3 -3.2624316E-3
-1.3337191E-3 2.5162848E-3
5.5184257E-3 -1.7358371E-4
6.318611E-3 -1.6470957E-3
-7.862386E-3 2.0285663E-3
6.6432767E-3 -7.8796543E-4
5.055736E-3 -2.504526E-3
-4.31472E-3 1.7565777E-4
-6.558249E-3 8.972408E-4
-5.45481E-3 2.610143E-3
7.543011E-3 -1.7674658E-3
6.5167286E-3 -7.872127E-4
-5.054864E-3 7.0101273E-4
7.861179E-3 -2.0632183E-3
-4.93789E-3 3.226131E-3
-4.7198404E-3 3.0385884E-3
-4.6035657E-3 3.7162728E-4
5.8805803E-3 -1.5205741E-3
-7.8081735E-3 2.0037577E-3
7.3385183E-3 -1.4218463E-3
-7.730058E-3 1.8562513E-3
-5.1613087E-3 -8.851712E-4
-5.468184E-3 2.9122706E-3
1.8105772E-3 -6.1733194E-4
6.016277E-3 -2.578045E-3
5.5086208E-3 -4.1380324E-4
4.2541805E-3 5.9168386E-5
-6.108533E-3 1.6002146E-3
-5.0395136E-3 6.485027E-4
-1.8412131E-3 -7.617728E-3
6.565333E-3 -1.9056541E-3
-6.7442196E-4 2.7258366E-3
6.3130986E-3 -2.0484198E-3
7.4981013E-3 -2.121683E-3
7.868092E-3 -2.036251E-3
4.884778E-3 0
-7.7302717E-3 2.0215015E-3
6.824548E-3 -2.4919945E-3
-7.7421865E-3 1.8881578E-3
-5.418673E-3 2.516995E-3
-2.0651796E-3 4.213056E-3
-7.716405E-3 2.0818228E-3
-5.4852935E-3 -1.0065543E-3
7.8501564E-4 -5.6367E-4
5.4819556E-3 -5.055935E-4
-7.1951053E-3 2.0913624E-3
-4.0200823E-3 -8.4628013E-4
-7.6515535E-3 2.1405192E-3
-6.0824673E-3 2.9660848E-3
5.4397783E-3 4.2861063E-4
-7.5321062E-3 1.5608057E-3
7.486309E-3 -2.2809752E-3
3.8353726E-3 -1.0107361E-3
-7.872549E-3 2.068208E-3
4.2797986E-4 -5.67622E-3
3.4896107E-3 7.560057E-4
-1.1451404E-3 -6.302442E-3
7.019856E-3 -1.7118646E-3
7.847685E-3 -2.0325645E-3
-7.055636E-3 1.2998513E-3
-7.0992736E-3 1.2768159E-3
-5.2553373E-3 1.2678358E-3
7.3500318E-3 -1.6491956E-3
-5.681727E-3 2.078608E-3
1.0376851E-3 -1.0559575E-4
-6.146851E-3 -3.7335942E-4
-5.5122958E-3 6.475406E-4
-2.4778154E-3 -4.8961015E-3
5.880668E-3 -2.4397855E-4
-5.6702616E-3 -3.048248E-4
8.686212E-4 -2.6006494E-3
7.5867153E-3 -2.1628605E-3
-6.3904556E-3 9.659893E-4
-4.087361E-3 -2.6542505E-3
-6.2374934E-3 2.6081714E-3
2.069882E-3 7.821644E-3
2.2007597E-3 5.6591346E-3
-6.498366E-3 1.6420584E-3
6.5722554E-3 -2.4136615E-3
1.1295557E-3 6.5531065E-3
5.575011E-4 8.8617124E-4
-4.8620924E-3 3.493774E-3
1.6526798E-3 6.9693383E-3
-7.3944815E-3 2.3170202E-3
-5.616513E-3 2.7934557E-3
3.2027546E-4 -1.6242805E-3
6.8112407E-3 -1.0031234E-3
-1.3738485E-3 -7.4347598E-3
1.4476657E-3 6.628528E-3
1.6550274E-3 7.5021083E-3
-1.07638305E-2 1.6799219E-3
4.832152E-3 3.6421698E-4
2.8988282E-4 1.2186847E-2
-7.498459E-3 -1.2403831E-4
-7.2378825E-5 1.3234737E-2
-7.373896E-4 6.65668E-3
-7.906102E-3 -2.590887E-3
-1.1408754E-2 -4.4012777E-4
1.332913E-2 1.607402E-5
-1.1551487E-2 -8.4930885E-4
1.0259198E-2 2.1207521E-3
8.536628E-3 1.4547693E-3
1.028014E-2 1.0333037E-3
1.2673764E-2 4.1578925E-5
1.1566814E-2 2.2894735E-4
-8.678754E-3 1.4606867E-3
1.0269742E-3 6.139132E-3
1.2732318E-2 -3.018124E-4
-5.4661073E-3 -4.5697032E-3
5.98491E-3 -1.8737293E-3
-1.3118943E-2 -2.2791022E-4
-1.3083783E-2 3.5385852E-5
-1.2709038E-2 -4.137634E-4
1.2815176E-2 4.3534342E-4
2.7532985E-3 -6.69528E-3
1.5569127E-3 -4.3847444E-3
-8.41297E-3 -2.5826206E-3
-1.3165318E-2 1.0523752E-4
-1.2244621E-3 1.1093576E-2
-1.2376237E-2 8.3584903E-4
-1.3325143E-2 -1.377413E-6
4.0741065E-3 6.5813307E-3
3.151972E-3 -3.4301355E-3
-8.80487E-3 -2.009028E-3
-1.0680974E-2 -8.307979E-6
1.32819E-2 4.34934E-5
-1.0839226E-2 -1.5022595E-3
-9.037282E-3 1.8712184E-3
6.9008367E-3 1.507608E-3
1.0749889E-2 1.2941418E-3
9.712534E-3 -1.8732089E-3
-1.2668429E-2 -3.2452223E-4
-1.0638649E-2 -1.4510814E-3
8.289541E-3 9.825203E-4
-1.329433E-2 1.18438E-5
9.1494145E-3 -3.0619449E-3
8.726735E-3 -2.8553903E-3
7.43904E-3 1.3170168E-3
-9.935421E-3 -2.7257978E-5
1.318584E-2 6.0317518E-5
-1.2201784E-2 -7.868455E-4
1.3001177E-2 2.6142388E-4
7.801572E-3 3.5367436E-3
9.85873E-3 -2.3457985E-3
-3.1207544E-3 2.2765805E-4
-1.0587785E-2 1.5900574E-3
-8.888764E-3 -1.6248176E-3
-6.7078513E-3 -1.8541723E-3
1.0329121E-2 -4.4395956E-6
8.243518E-3 1.0592659E-3
-2.3873559E-4 1.2817189E-2
-1.1178419E-2 2.9876365E-4
2.1953396E-3 -4.0345974E-3
-1.08383335E-2 6.2907767E-4
-1.2743946E-2 2.5462016E-4
-1.3294109E-2 -3.369336E-5
-7.7302717E-3 -2.0215015E-3
1.3069903E-2 0
-1.1831282E-2 1.1193879E-3
1.3033574E-2 2.1594974E-4
9.616799E-3 -1.7407545E-3
5.0117113E-3 -5.8126096E-3
1.3072921E-2 -1.0119879E-4
8.264053E-3 3.8629116E-3
-1.4755725E-3 5.671521E-4
-8.884553E-3 -1.4685222E-3
1.22519005E-2 -3.3202808E-4
6.01165E-3 3.0029155E-3
1.2994583E-2 -2.2092558E-4
1.0853118E-2 -2.1767474E-3
-8.431198E-3 -2.929467E-3
1.2565648E-2 6.470532E-4
-1.2791204E-2 5.115841E-4
-6.4878445E-3 1.2294265E-5
1.3314388E-2 -1.5035268E-5
-3.0263173E-3 8.8056335E-3
-5.209525E-3 -2.6405256E-3
-7.959723E-4 1.04476595E-2
-1.1817514E-2 -1.96011E-4
-1.326029E-2 -3.108164E-5
1.170363E-2 8.6283823E-4
1.1763155E-2 9.1735093E-4
8.841367E-3 1.684737E-4
-1.231409E-2 -4.3182547E-4
9.851666E-3 -9.3813613E-4
-1.6858596E-3 -2.623247E-4
9.573021E-3 3.1346434E-3
8.9913085E-3 1.2564438E-3
1.8950121E-3 8.773603E-3
-9.407259E-3 -2.0475362E-3
8.84717E-3 2.8289554E-3
-2.4508573E-3 3.756119E-3
-1.29012205E-2 2.8311324E-4
1.0512803E-2 1.1159066E-3
5.369915E-3 5.8919126E-3
1.0950333E-2 -1.5461855E-3
-3.8750513E-5 -1.3234522E-2
-1.1407939E-3 -9.866465E-3
1.0963355E-2 9.066898E-5
-1.1399605E-2 1.0998326E-3
9.2437014E-4 -1.0837892E-2
-5.155278E-4 -1.6331007E-3
9.140224E-3 -3.5168638E-3
2.6876628E-4 -1.1713075E-2
1.2660803E-2 -6.0662767E-4
1.00442935E-2 -2.0963869E-3
-1.1790305E-3 2.4379191E-3
-1.1194073E-2 -1.2312775E-3
-9.0263155E-4 1.2334226E-2
4.521659E-4 -1.1088894E-2
4.8553117E-4 -1.25571685E-2
9.887633E-3 -5.98836E-4
-4.34302E-3 -7.4355624E-4
7.8134646E-4 -1.105674E-2
6.7772144E-3 7.544979E-4
1.1990246E-3 -1.1974295E-2
1.2376275E-3 -5.9626787E-3
6.934949E-3 3.0224787E-3
1.0289864E-2 1.3755343E-3
-1.2064565E-2 -1.1561406E-3
1.0384024E-2 1.7581624E-3
-9.105311E-3 -2.7984327E-3
-7.6030255E-3 -2.0480324E-3
-9.217403E-3 -1.8158336E-3
-1.1469123E-2 -1.1230985E-3
-1.0451031E-2 -1.1979046E-3
7.9813795E-3 -5.789562E-4
-4.038554E-4 -5.645289E-3
-1.15515385E-2 -8.172649E-4
4.5567118E-3 4.604789E-3
-5.5782036E-3 1.183573E-3
1.1856155E-2 1.3298995E-3
1.1846877E-2 1.0885441E-3
1.1469178E-2 1.4630326E-3
-1.1563409E-2 -1.4916578E-3
-3.0657966E-3 5.824966E-3
-1.7849024E-3 3.8358627E-3
7.3944894E-3 3.0584075E-3
1.1926668E-2 1.0322959E-3
2.0585437E-3 -9.9373795E-3
1.1274941E-2 3.0334145E-4
1.2062215E-2 1.1424953E-3
-3.1243418E-3 -6.306556E-3
-3.1470412E-3 2.8351108E-3
7.798375E-3 2.5727383E-3
9.668038E-3 9.2230603E-4
-1.2019464E-2 -1.1769161E-3
9.68334E-3 2.288231E-3
8.341091E-3 -9.198757E-4
-6.1177304E-3 -1.9557641E-3
-9.620295E-3 -2.0921847E-3
-8.95252E-3 8.638453E-4
1.1440061E-2 1.3787705E-3
9.506155E-3 2.2247236E-3
-7.419802E-3 -1.5993763E-3
1.2035454E-2 1.1278878E-3
-8.544578E-3 1.9881544E-3
-8.144264E-3 1.8373763E-3
-6.6212527E-3 -1.8293302E-3
8.991518E-3 8.7560574E-4
-1.19310655E-2 -1.183919E-3
1.0978043E-2 1.7573138E-3
-1.1746679E-2 -1.3501509E-3
-6.7593167E-3 -3.869745E-3
-9.125337E-3 1.2791264E-3
2.8445018E-3 6.119771E-5
9.720573E-3 -5.325657E-4
7.907226E-3 2.2321246E-3
5.9133517E-3 2.2529564E-3
-9.350621E-3 -8.806316E-4
-7.3715663E-3 -1.6649067E-3
1.3138548E-3 -1.1582071E-2
1.0144639E-2 6.8693876E-4
-2.332838E-3 3.4642206E-3
9.865074E-3 3.5880186E-4
1.1558022E-2 8.609811E-4
1.2031354E-2 1.1690906E-3
6.824548E-3 2.4919945E-3
-1.1831282E-2 -1.1193879E-3
1.0805914E-2 0
-1.1779901E-2 -1.3117611E-3
-8.854513E-3 7.521423E-4
-5.034585E-3 4.83252E-3
-1.1842681E-2 -1.0280383E-3
-7.150033E-3 -4.2046127E-3
1.3843084E-3 -3.8702643E-4
7.916799E-3 2.0902804E-3
-1.1119237E-2 -7.4876664E-4
-5.184743E-3 -3.2332079E-3
-1.178202E-2 -9.1294874E-4
-1.0011009E-2 1.0409306E-3
7.3812837E-3 3.3739444E-3
-1.1319397E-2 -1.6619329E-3
1.162281E-2 6.3241634E-4
5.874051E-3 5.445304E-4
-1.2053885E-2 -1.126717E-3
3.4936857E-3 -7.7119395E-3
4.489673E-3 2.836462E-3
1.6153415E-3 -9.3893735E-3
1.0680793E-2 1.1895604E-3
1.2000963E-2 1.1638303E-3
-1.05205905E-2 -1.7834397E-3
-1.0569805E-2 -1.8378849E-3
-7.989051E-3 -9.0973737E-4
1.1110112E-2 1.4455571E-3
-8.998381E-3 5.471842E-6
1.5036253E-3 3.8185192E-4
-8.397325E-3 -3.6574693E-3
-8.031602E-3 -1.9074434E-3
-9.639976E-4 -8.104438E-3
8.340378E-3 2.6591893E-3
-7.7664433E-3 -3.318585E-3
2.5402897E-3 -3.190249E-3
1.1702833E-2 8.48658E-4
-9.4209425E-3 -1.9105353E-3
-4.3563936E-3 -5.793455E-3
-1.0045006E-2 4.6180005E-4
-1.0984084E-3 1.1983619E-2
1.8765626E-4 9.029134E-3
-9.9166045E-3 -1.0210464E-3
1.0413473E-2 -1.9269552E-5
-1.764993E-3 9.731627E-3
3.268028E-4 1.5224866E-3
-8.575221E-3 2.4007482E-3
-1.2464762E-3 1.058002E-2
-1.1512907E-2 -5.3521193E-4
-9.271954E-3 1.0374583E-3
1.2760935E-3 -2.1059003E-3
1.0027768E-2 2.0733208E-3
1.8734694E-3 -1.1088016E-2
-1.3590362E-3 9.999284E-3
-1.5149916E-3 1.1325555E-2
-1.0706156E-2 1.8530998E-3
4.8247385E-3 2.833645E-4
4.904367E-4 1.2148183E-2
-7.4796663E-3 2.012454E-7
1.4649608E-4 1.3199146E-2
-6.2535366E-4 6.650361E-3
-7.926934E-3 -2.453055E-3
-1.1384315E-2 -2.5040132E-4
1.3292346E-2 -2.042035E-4
-1.1533412E-2 -6.5608684E-4
1.0265722E-2 1.9453482E-3
8.536938E-3 1.3096778E-3
1.0268638E-2 8.6057576E-4
1.2639223E-2 -1.6794112E-4
1.1538446E-2 3.719625E-5
-8.6304955E-3 1.6000229E-3
1.1255543E-3 6.1050993E-3
1.269194E-2 -5.1134545E-4
-5.526418E-3 -4.466687E-3
5.937315E-3 -1.9674082E-3
-1.3086244E-2 -1.05168E-5
-1.3046832E-2 2.514669E-4
-1.2680549E-2 -2.0262567E-4
1.2786748E-2 2.2239244E-4
2.6350217E-3 -6.722162E-3
1.4801375E-3 -4.3982808E-3
-8.432257E-3 -2.436437E-3
-1.3126986E-2 3.2247158E-4
-1.0377627E-3 1.1082972E-2
-1.2328026E-2 1.0380149E-3
-1.3288127E-2 2.187932E-4
4.1715237E-3 6.495722E-3
3.0865362E-3 -3.4726805E-3
-8.81359E-3 -1.8579639E-3
-1.0651424E-2 1.6819319E-4
1.3245701E-2 -1.7607996E-4
-1.0833919E-2 -1.3189913E-3
-8.981245E-3 2.0153373E-3
6.906565E-3 1.3893973E-3
1.0741391E-2 1.1129273E-3
9.654587E-3 -2.0284792E-3
-1.2638579E-2 -1.1430373E-4
-1.0633053E-2 -1.2712688E-3
8.282734E-3 8.428243E-4
-1.3257181E-2 2.3146921E-4
9.073392E-3 -3.2046067E-3
8.655299E-3 -2.9916428E-3
7.4401232E-3 1.1904434E-3
-9.908256E-3 1.3697779E-4
1.3150186E-2 -1.5771542E-4
-1.21808695E-2 -5.830522E-4
1.296936E-2 4.588273E-5
7.838324E-3 3.39801E-3
9.792568E-3 -2.5021706E-3
-3.1083187E-3 2.785886E-4
-1.0532084E-2 1.7605765E-3
-8.8909045E-3 -1.4734351E-3
-6.7198416E-3 -1.7381865E-3
1.0300336E-2 -1.7509203E-4
8.238107E-3 9.201167E-4
-2.6297692E-5 1.2785508E-2
-1.114241E-2 4.826308E-4
2.1225754E-3 -4.059656E-3
-1.0797814E-2 8.064074E-4
-1.27043165E-2 4.644764E-4
-1.3257715E-2 1.8605443E-4
-7.7421865E-3 -1.8881578E-3
1.3033574E-2 -2.1594974E-4
-1.1779901E-2 1.3117611E-3
1.3000915E-2 0
9.561306E-3 -1.8948113E-3
4.901741E-3 -5.8792597E-3
1.3034913E-2 -3.169168E-4
8.304908E-3 3.7156302E-3
-1.4621002E-3 5.8995606E-4
-8.884122E-3 -1.3176436E-3
1.221236E-2 -5.335398E-4
6.044556E-3 2.8952404E-3
1.2954813E-2 -4.3501693E-4
1.0786985E-2 -2.3500195E-3
-8.456165E-3 -2.7820184E-3
1.2541412E-2 4.376364E-4
-1.2747197E-2 7.215075E-4
-6.469608E-3 1.19456425E-4
1.3277131E-2 -2.3498267E-4
-2.8724128E-3 8.83116E-3
-5.238673E-3 -2.547111E-3
-6.211364E-4 1.0431771E-2
-1.1787905E-2 -2.0896998E-7
-1.3223946E-2 1.8809982E-4
1.1685356E-2 6.670643E-4
1.1745616E-2 7.204427E-4
8.819576E-3 2.1922333E-5
-1.2286997E-2 -2.2716296E-4
9.8087825E-3 -1.0983043E-3
-1.685508E-3 -2.3374065E-4
9.598205E-3 2.9677583E-3
8.987077E-3 1.1043905E-3
2.0347082E-3 8.717906E-3
-9.41494E-3 -1.8864115E-3
8.86932E-3 2.6749128E-3
-2.381984E-3 3.7861734E-3
-1.2860682E-2 4.9548893E-4
1.050202E-2 9.39105E-4
5.4523395E-3 5.7868105E-3
1.0894349E-2 -1.7228167E-3
-2.573128E-4 -1.3197096E-2
-1.3006433E-3 -9.820191E-3
1.0934381E-2 -9.072712E-5
-1.1349746E-2 1.2851275E-3
7.427293E-4 -1.0823039E-2
-5.4107804E-4 -1.6200435E-3
9.05671E-3 -3.6581096E-3
7.448763E-5 -1.1684959E-2
1.26155885E-2 -8.14132E-4
9.9817375E-3 -2.2565187E-3
-1.1354722E-3 2.4506233E-3
-1.1183302E-2 -1.0428989E-3
-6.963282E-4 1.2314856E-2
2.6769054E-4 -1.1065542E-2
2.7670347E-4 -1.2530287E-2
-8.143742E-3 -1.9753151E-4
3.5069748E-3 9.115746E-4
-1.4098468E-3 9.005657E-3
-5.5008247E-3 -1.089972E-3
-1.8159641E-3 9.728443E-3
-1.4291593E-3 4.799755E-3
-5.472213E-3 -2.9593653E-3
-8.33591E-3 -1.8433544E-3
9.805395E-3 1.7871076E-3
-8.386434E-3 -2.1634388E-3
7.266231E-3 2.9268456E-3
6.08747E-3 2.207392E-3
7.426475E-3 2.1294935E-3
9.319781E-3 1.7185874E-3
8.4803365E-3 1.7090199E-3
-6.580349E-3 -8.113706E-5
-6.201408E-5 4.653937E-3
9.4086025E-3 1.4737193E-3
-3.4133168E-3 -4.090395E-3
4.653238E-3 -5.815667E-4
-9.622527E-3 -1.9149818E-3
-9.631724E-3 -1.7165664E-3
-9.296167E-3 -1.9971374E-3
9.371388E-3 2.0271523E-3
2.9176006E-3 -4.559662E-3
1.7295674E-3 -3.0189205E-3
-5.846266E-3 -3.0207918E-3
-9.701022E-3 -1.6760291E-3
-2.3784868E-3 7.999539E-3
-9.217726E-3 -1.0333508E-3
-9.80442E-3 -1.775763E-3
2.1211624E-3 5.385147E-3
2.7760654E-3 -2.1040794E-3
-6.21102E-3 -2.6509406E-3
-7.857925E-3 -1.428691E-3
9.766993E-3 1.8009923E-3
-7.775389E-3 -2.5490138E-3
-6.8988316E-3 1.731798E-4
4.876821E-3 2.0284024E-3
7.7373744E-3 2.3839818E-3
7.395944E-3 -8.470866E-5
-9.278173E-3 -1.9260653E-3
-7.634621E-3 -2.484642E-3
5.968562E-3 1.8270033E-3
-9.783508E-3 -1.7619303E-3
7.139928E-3 -1.0343778E-3
6.801411E-3 -9.3869213E-4
5.298214E-3 1.9598482E-3
-7.3068254E-3 -1.3433353E-3
9.6940715E-3 1.8005772E-3
-8.873241E-3 -2.2040906E-3
9.531411E-3 1.9239561E-3
5.2693235E-3 3.6414019E-3
7.566459E-3 -4.1296735E-4
-2.3265637E-3 -2.481368E-4
-8.002239E-3 -2.402061E-4
-6.323922E-3 -2.3794135E-3
-4.688665E-3 -2.2577E-3
7.600729E-3 1.3724485E-3
5.9244763E-3 1.8773429E-3
-1.8827568E-3 9.399056E-3
-8.264841E-3 -1.2690019E-3
2.152685E-3 -2.6762527E-3
-8.058601E-3 -9.806628E-4
-9.410872E-3 -1.5099923E-3
-9.777281E-3 -1.7954079E-3
-5.418673E-3 -2.516995E-3
9.616799E-3 1.7407545E-3
-8.854513E-3 -7.521423E-4
9.561306E-3 1.8948113E-3
7.3078605E-3 0
4.461773E-3 -3.609402E-3
9.632498E-3 1.6666949E-3
5.5661732E-3 3.9429925E-3
-1.16126E-3 2.2078033E-4
-6.3416394E-3 -2.2638505E-3
9.059136E-3 1.3875009E-3
4.0234025E-3 3.0102166E-3
9.590802E-3 1.568166E-3
8.275611E-3 -1.561392E-4
-5.8134818E-3 -3.2784282E-3
9.15959E-3 2.1496937E-3
-9.479869E-3 -1.3272127E-3
-4.7753756E-3 -8.5505715E-4
9.798693E-3 1.7622539E-3
-3.3995605E-3 6.0760914E-3
-3.481468E-3 -2.6367377E-3
-1.977177E-3 7.5813443E-3
-8.669188E-3 -1.7181755E-3
-9.752745E-3 -1.7889814E-3
8.49658E-3 2.1936572E-3
8.533117E-3 2.2416958E-3
6.483015E-3 1.3015266E-3
-9.00316E-3 -1.9578252E-3
7.373777E-3 6.218459E-4
-1.2055123E-3 -4.1755408E-4
6.626305E-3 3.5814734E-3
6.448437E-3 2.1220222E-3
2.2580568E-4 6.707986E-3
-6.649127E-3 -2.759505E-3
6.1329403E-3 3.2598742E-3
-2.303604E-3 2.437317E-3
-9.530389E-3 -1.5099744E-3
7.5866655E-3 2.2212605E-3
3.1664367E-3 5.0504613E-3
8.263159E-3 3.2077418E-4
1.734167E-3 -9.743086E-3
4.7470193E-4 -7.411658E-3
8.0547305E-3 1.5269015E-3
-8.5342815E-3 -7.090372E-4
2.1236262E-3 -7.851376E-3
-1.6181447E-4 -1.2702931E-3
7.193756E-3 -1.3703301E-3
1.7577985E-3 -8.582653E-3
9.39658E-3 1.2399124E-3
7.669777E-3 -2.0473609E-4
-1.1922289E-3 1.6367813E-3
-8.072576E-3 -2.396887E-3
-2.306925E-3 8.955269E-3
1.8096098E-3 -8.098954E-3
2.0297167E-3 -9.174863E-3
-4.8745535E-3 -4.142851E-3
1.6909308E-3 2.2886752E-3
-5.308729E-3 4.8020203E-3
-2.820153E-3 -3.382371E-3
-5.91367E-3 5.042729E-3
-3.2431968E-3 2.224592E-3
-1.8793782E-3 -4.509587E-3
-4.1789976E-3 -5.242612E-3
5.1039644E-3 5.9340596E-3
-4.051753E-3 -5.4629925E-3
2.9907674E-3 5.37581E-3
2.6264244E-3 4.3543535E-3
3.4824207E-3 4.9681365E-3
4.841319E-3 5.652377E-3
4.333525E-3 5.231928E-3
-3.977521E-3 -3.2996165E-3
-2.3364732E-3 2.810806E-3
5.016489E-3 5.5467435E-3
-6.3707535E-5 -4.183228E-3
3.1282483E-3 1.9431935E-3
-4.9291574E-3 -5.9218127E-3
-5.0327713E-3 -5.8052135E-3
-4.6893223E-3 -5.810781E-3
4.720424E-3 5.8662584E-3
4.0333727E-3 -1.3428534E-3
2.5470431E-3 -9.889399E-4
-2.0774151E-3 -4.7318377E-3
-5.095102E-3 -5.8146906E-3
-5.4031983E-3 3.7093228E-3
-5.1174513E-3 -5.1836036E-3
-5.108972E-3 -5.9266514E-3
-1.3646968E-3 4.3355273E-3
2.73413E-3 8.6483626E-5
-2.4827858E-3 -4.686182E-3
-4.0919716E-3 -4.7533615E-3
5.07366E-3 5.923569E-3
-3.4882447E-3 -5.396603E-3
-4.2975773E-3 -3.3016456E-3
1.975674E-3 3.6471246E-3
3.5465453E-3 5.2770684E-3
4.55739E-3 3.6011885E-3
-4.71344E-3 -5.7585007E-3
-3.4340934E-3 -5.2877753E-3
2.7417024E-3 4.0633795E-3
-5.1030363E-3 -5.9078773E-3
4.8701293E-3 2.8949252E-3
4.6161893E-3 2.78615E-3
2.2668124E-3 3.8133978E-3
-3.7976585E-3 -4.429056E-3
5.029343E-3 5.8873E-3
-4.328892E-3 -5.7282485E-3
4.8690946E-3 5.8822893E-3
1.4186427E-3 4.825792E-3
4.8236265E-3 3.4849902E-3
-1.297914E-3 -1.3006041E-3
-4.7670826E-3 -4.0990165E-3
-2.6858265E-3 -4.576165E-3
-1.7475444E-3 -3.6941895E-3
3.9627207E-3 4.591992E-3
2.6899234E-3 4.07234E-3
-5.791764E-3 4.808634E-3
-4.4192835E-3 -4.8568426E-3
2.6361293E-3 -5.707453E-4
-4.4357777E-3 -4.578936E-3
-4.99996E-3 -5.5700107E-3
-5.0827004E-3 -5.9252414E-3
-2.0651796E-3 -4.213056E-3
5.0117113E-3 5.8126096E-3
-5.034585E-3 -4.83252E-3
4.901741E-3 5.8792597E-3
4.461773E-3 3.609402E-3
4.506819E-3 0
5.0578755E-3 5.7751467E-3
1.450925E-3 5.156542E-3
-8.1804564E-4 -4.3875797E-4
-2.753721E-3 -4.51436E-3
4.8457086E-3 5.3215E-3
9.696996E-4 3.8250568E-3
5.081082E-3 5.6943973E-3
5.1297457E-3 3.9920504E-3
-1.9301508E-3 -4.872944E-3
4.5305872E-3 5.836467E-3
-5.1323613E-3 -5.492494E-3
-2.49326E-3 -2.8806406E-3
5.112147E-3 5.9155747E-3
-5.0766054E-3 2.0306571E-3
-8.232878E-4 -3.3293657E-3
-4.951632E-3 3.6522062E-3
-4.4443053E-3 -5.330793E-3
-5.070893E-3 -5.9092E-3
4.1040764E-3 5.535843E-3
4.102658E-3 5.583219E-3
3.3153354E-3 3.9966446E-3
-4.529845E-3 -5.6420607E-3
4.194884E-3 4.021623E-3
-5.29786E-4 -8.5034594E-4
2.2767396E-3 5.4594255E-3
2.8889757E-3 4.4805156E-3
-3.1752551E-3 4.20705E-3
-2.696649E-3 -4.9688495E-3
2.134358E-3 5.0193984E-3
-2.61026E-3 3.5032452E-4
-5.072939E-3 -5.62903E-3
3.5349007E-3 5.103284E-3
-5.6120683E-4 4.647455E-3
4.8865923E-3 4.2770766E-3
5.870962E-3 -5.0920695E-3
3.9504943E-3 -4.2906874E-3
4.1636233E-3 4.9105273E-3
-4.8603597E-3 -4.648038E-3
5.174415E-3 -3.7447398E-3
5.286115E-4 -8.5549155E-4
5.0689224E-3 2.7163972E-3
5.312244E-3 -4.371901E-3
5.124627E-3 5.3980555E-3
4.78386E-3 3.6631546E-3
-1.536326E-3 4.1047772E-4
-3.744827E-3 -5.450506E-3
-5.831548E-3 4.3281834E-3
5.1049753E-3 -4.050992E-3
5.7707587E-3 -4.59917E-3
-1.0779323E-2 1.5969672E-3
4.8304475E-3 4.0171572E-4
1.9558899E-4 1.2191906E-2
-7.4992306E-3 -1.8212627E-4
-1.7487006E-4 1.3237233E-2
-7.891017E-4 6.652508E-3
-7.887867E-3 -2.6527012E-3
-1.1407982E-2 -5.2856596E-4
1.3332083E-2 1.19283235E-4
-1.15475785E-2 -9.3894685E-4
1.0245147E-2 2.2006775E-3
8.527336E-3 1.5212034E-3
1.0274514E-2 1.1131399E-3
1.26763685E-2 1.3972001E-4
1.1567713E-2 3.185605E-4
-8.692068E-3 1.3938253E-3
9.796768E-4 6.1485018E-3
1.2737595E-2 -2.032977E-4
-5.4319873E-3 -4.6130824E-3
6.0007996E-3 -1.8278217E-3
-1.3120208E-2 -3.295412E-4
-1.3087079E-2 -6.591173E-5
-1.270877E-2 -5.1226345E-4
1.2814764E-2 5.3467E-4
2.8057748E-3 -6.6755074E-3
1.5912228E-3 -4.373702E-3
-8.394916E-3 -2.6483573E-3
-1.3169174E-2 3.324818E-6
-1.3106406E-3 1.1086658E-2
-1.2385568E-2 7.402148E-4
-1.33282095E-2 -1.04552884E-4
4.02409E-3 6.614396E-3
3.1792591E-3 -3.4065226E-3
-8.791347E-3 -2.077667E-3
-1.0683377E-2 -9.10113E-5
1.3284631E-2 1.4634362E-4
-1.0830098E-2 -1.5865334E-3
-9.053858E-3 1.8016761E-3
6.8907565E-3 1.5613885E-3
1.07423505E-2 1.3776752E-3
9.729281E-3 -1.7984387E-3
-1.2668842E-2 -4.226869E-4
-1.062987E-2 -1.5337896E-3
8.283848E-3 1.0469323E-3
-1.3297492E-2 -9.1089365E-5
9.175235E-3 -2.9918088E-3
8.75086E-3 -2.7884801E-3
7.430561E-3 1.3749204E-3
-9.937505E-3 -1.0419267E-4
1.3188419E-2 1.6242781E-4
-1.219851E-2 -8.8150403E-4
1.3002155E-2 3.6215066E-4
7.775989E-3 3.5979669E-3
9.87917E-3 -2.2700054E-3
-3.1232378E-3 2.0354713E-4
-1.0602541E-2 1.5084449E-3
-8.878237E-3 -1.6940176E-3
-6.6950433E-3 -1.9065384E-3
1.033154E-2 7.553614E-5
8.23722E-3 1.1233393E-3
-3.380321E-4 1.2818301E-2
-1.1183313E-2 2.1228015E-4
2.2270863E-3 -4.018531E-3
-1.0845708E-2 5.453031E-4
-1.2748861E-2 1.5600421E-4
-1.3296919E-2 -1.3663547E-4
-7.716405E-3 -2.0818228E-3
1.3072921E-2 1.0119879E-4
-1.1842681E-2 1.0280383E-3
1.3034913E-2 3.169168E-4
9.632498E-3 -1.6666949E-3
5.0578755E-3 -5.7751467E-3
1.3076724E-2 0
8.236051E-3 3.927791E-3
-1.4803046E-3 5.558579E-4
-8.875233E-3 -1.5376535E-3
1.22573E-2 -2.3724028E-4
5.9897867E-3 3.0501566E-3
1.2999293E-2 -1.2036142E-4
1.0872479E-2 -2.0932162E-3
-8.410462E-3 -2.9954251E-3
1.256354E-2 7.444966E-4
-1.2798119E-2 4.1266205E-4
-6.489438E-3 -3.7937603E-5
1.3317579E-2 8.8052795E-5
-3.0951973E-3 8.7842345E-3
-5.190283E-3 -2.681472E-3
-8.7705103E-4 1.0443909E-2
-1.1818726E-2 -2.8755772E-4
-1.3263112E-2 -1.3376192E-4
1.1699652E-2 9.5365685E-4
1.1758769E-2 1.0086435E-3
8.842105E-3 2.3696992E-4
-1.231359E-2 -5.272715E-4
9.861206E-3 -8.620723E-4
-1.6842177E-3 -2.7543868E-4
9.550961E-3 3.2094899E-3
8.983657E-3 1.3263524E-3
1.8275168E-3 8.790302E-3
-9.3935765E-3 -2.120848E-3
8.827309E-3 2.898111E-3
-2.4805064E-3 3.7380098E-3
-1.2906392E-2 1.8328578E-4
1.0506591E-2 1.197563E-3
5.3255353E-3 5.9348512E-3
1.0964834E-2 -1.4617556E-3
6.371348E-5 -1.3237879E-2
-1.0646621E-3 -9.8775765E-3
1.0965185E-2 1.7557747E-4
-1.1410752E-2 1.0118209E-3
1.0085001E-3 -1.0833237E-2
-5.03002E-4 -1.6374696E-3
9.1695655E-3 -3.4469045E-3
3.5952064E-4 -1.17136985E-2
1.2668424E-2 -5.087366E-4
1.0062845E-2 -2.0190992E-3
-1.1981792E-3 2.4293533E-3
-1.1187124E-2 -1.3182362E-3
-9.983423E-4 1.2330085E-2
5.381298E-4 -1.1087952E-2
5.828713E-4 -1.2556309E-2
-6.3094175E-3 4.243543E-3
3.1629994E-3 -1.1978869E-3
3.7852097E-3 7.6200217E-3
-4.7779093E-3 2.137799E-3
3.8658648E-3 8.389668E-3
1.501185E-3 4.426936E-3
-5.7647564E-3 6.985019E-4
-7.3437975E-3 3.0936552E-3
8.432711E-3 -3.9293645E-3
-7.5549833E-3 2.877117E-3
7.1136593E-3 -1.691242E-3
5.8276476E-3 -1.6032218E-3
6.8054963E-3 -2.3850212E-3
8.025863E-3 -3.7195391E-3
7.381322E-3 -3.2738994E-3
-5.0558276E-3 3.4886603E-3
2.4638202E-3 3.5782205E-3
7.961396E-3 -3.953971E-3
-4.8068115E-3 -1.2738564E-3
3.2304411E-3 -2.953639E-3
-8.362422E-3 3.733299E-3
-8.262371E-3 3.8893886E-3
-8.15817E-3 3.494634E-3
8.2316585E-3 -3.5123588E-3
-2.3794148E-4 -5.0471597E-3
-3.1151518E-4 -3.2326158E-3
-6.082804E-3 8.5353747E-4
-8.29328E-3 3.957654E-3
2.5045702E-3 7.376327E-3
-7.5784083E-3 4.186398E-3
-8.425847E-3 3.937479E-3
4.521207E-3 2.9572172E-3
9.791772E-4 -3.1004522E-3
-6.1610714E-3 1.3320466E-3
-6.755998E-3 3.1515923E-3
8.410952E-3 -3.898068E-3
-7.297608E-3 2.2537445E-3
-5.1611876E-3 3.854204E-3
4.8089596E-3 -1.086341E-3
7.179609E-3 -2.3589323E-3
5.5875587E-3 -4.0550386E-3
-8.106117E-3 3.5390593E-3
-7.1556573E-3 2.2268223E-3
5.531839E-3 -1.8287946E-3
-8.402456E-3 3.9367317E-3
4.8801606E-3 -4.6402374E-3
4.67395E-3 -4.3847077E-3
5.092933E-3 -1.3659212E-3
-6.290187E-3 2.9192565E-3
8.355186E-3 -3.8590396E-3
-7.947702E-3 3.108813E-3
8.297863E-3 -3.6773016E-3
5.9782183E-3 -6.954533E-5
5.5403206E-3 -4.397065E-3
-1.9059556E-3 1.0663107E-3
-6.2246644E-3 4.1346895E-3
-6.100561E-3 1.5997771E-3
-4.789365E-3 8.101714E-4
6.529753E-3 -3.0556591E-3
5.525421E-3 -1.7666661E-3
3.6372687E-3 8.174823E-3
-6.979771E-3 3.4927758E-3
1.9564875E-4 -3.1999112E-3
-6.66711E-3 3.6011178E-3
-7.982696E-3 3.927568E-3
-8.415776E-3 3.9078738E-3
-5.4852935E-3 1.0065543E-3
8.264053E-3 -3.8629116E-3
-7.150033E-3 4.2046127E-3
8.304908E-3 -3.7156302E-3
5.5661732E-3 -3.9429925E-3
1.450925E-3 -5.156542E-3
8.236051E-3 -3.927791E-3
6.3670445E-3 0
-7.6537294E-4 7.9472514E-4
-6.0517034E-3 1.6973574E-3
7.6486985E-3 -3.8310855E-3
4.6886797E-3 1.2194282E-4
8.151132E-3 -3.9803404E-3
6.2190327E-3 -4.584073E-3
-6.196843E-3 6.396148E-4
8.136456E-3 -3.304746E-3
-7.9366295E-3 4.1040136E-3
-4.098607E-3 1.9253066E-3
8.414196E-3 -3.944678E-3
6.890441E-4 6.4622215E-3
-4.074392E-3 -1.298791E-4
2.5845969E-3 6.841273E-3
-7.530104E-3 3.3688217E-3
-8.39362E-3 3.8995293E-3
7.6551815E-3 -2.91353E-3
7.708931E-3 -2.8966547E-3
5.640158E-3 -2.50661E-3
-7.913784E-3 3.3664838E-3
5.951899E-3 -3.5049168E-3
-1.1434951E-3 3.3240198E-4
6.979455E-3 -8.473574E-4
6.056524E-3 -1.8630067E-3
3.7913162E-3 4.9874317E-3
-6.5533402E-3 1.4857389E-3
6.4301533E-3 -8.2611176E-4
-4.3951804E-4 3.0993505E-3
-8.073718E-3 3.992067E-3
6.977022E-3 -2.4015573E-3
5.1367786E-3 2.1383145E-3
6.466869E-3 -4.2141033E-3
-3.936068E-3 -8.356688E-3
-3.6374303E-3 -5.9013595E-3
6.958889E-3 -3.1829756E-3
-6.882865E-3 4.0646624E-3
-2.6187475E-3 -7.125964E-3
-8.086421E-4 -8.802354E-4
4.7398945E-3 -4.9251644E-3
-3.2919508E-3 -7.4855713E-3
7.826086E-3 -4.125567E-3
5.7313675E-3 -4.2942073E-3
-2.495067E-5 1.889959E-3
-7.4418853E-3 2.5299632E-3
3.074746E-3 8.065666E-3
-2.9915061E-3 -7.1451077E-3
-3.4043698E-3 -8.083355E-3
1.2881184E-3 2.7742222E-4
-5.2973797E-4 -2.5080473E-4
4.9610564E-4 -1.3884559E-3
8.411823E-4 3.3938995E-4
5.8247626E-4 -1.4910413E-3
3.721085E-4 -7.195311E-4
7.801588E-4 6.3558266E-4
1.2689325E-3 5.447584E-4
-1.5041413E-3 -5.802156E-4
1.2672909E-3 5.97148E-4
-1.0662207E-3 -6.8461476E-4
-9.0064475E-4 -5.3467765E-4
-1.1157736E-3 -5.627523E-4
-1.4290446E-3 -5.546562E-4
-1.2959411E-3 -5.277752E-4
1.043203E-3 2.1169437E-4
1.504561E-4 -7.3766307E-4
-1.4505563E-3 -5.184288E-4
4.1881876E-4 7.5310754E-4
-7.5699546E-4 -4.816641E-5
1.4712191E-3 5.950109E-4
1.478675E-3 5.637593E-4
1.4168766E-3 5.9820607E-4
-1.427923E-3 -6.052481E-4
-6.013766E-4 6.3641113E-4
-3.660436E-4 4.274708E-4
8.377421E-4 6.566443E-4
1.4909116E-3 5.594113E-4
6.196317E-4 -1.1993141E-3
1.4335293E-3 4.426852E-4
1.5043289E-3 5.7838333E-4
-1.74372E-4 -9.1981306E-4
-5.0469936E-4 2.504813E-4
9.0687734E-4 6.088926E-4
1.2055055E-3 4.644255E-4
-1.4976193E-3 -5.8126176E-4
1.1585436E-3 6.3995743E-4
1.1014948E-3 1.809038E-4
-7.136733E-4 -4.696598E-4
-1.1574887E-3 -6.125846E-4
-1.1778162E-3 -2.0998073E-4
1.4161646E-3 5.8636867E-4
1.1381196E-3 6.254757E-4
-8.9324155E-4 -4.7063932E-4
1.5014239E-3 5.7555357E-4
-1.1658245E-3 -5.133844E-5
-1.1091414E-3 -5.6316392E-5
-7.827062E-4 -4.7149704E-4
1.1205114E-3 4.3421247E-4
-1.4860443E-3 -5.7899277E-4
1.343419E-3 6.1831484E-4
-1.4564693E-3 -5.936842E-4
-7.273133E-4 -7.3783245E-4
-1.2148288E-3 -1.6297007E-4
3.6220741E-4 1.0971897E-4
1.2643436E-3 2.799285E-4
9.3302125E-4 5.6915625E-4
6.7684683E-4 5.00412E-4
-1.166335E-3 -4.4771796E-4
-8.8471535E-4 -4.7730675E-4
5.8313867E-4 -1.4366818E-3
1.2749912E-3 4.5134343E-4
-4.229269E-4 3.6023598E-4
1.2509297E-3 3.99294E-4
1.4498213E-3 5.242613E-4
1.499423E-3 5.8068516E-4
7.8501564E-4 5.6367E-4
-1.4755725E-3 -5.671521E-4
1.3843084E-3 3.8702643E-4
-1.4621002E-3 -5.8995606E-4
-1.16126E-3 -2.2078033E-4
-8.1804564E-4 4.3875797E-4
-1.4803046E-3 -5.558579E-4
-7.6537294E-4 -7.9472514E-4
1.9120079E-4 0
9.39328E-4 5.51328E-4
-1.3976292E-3 -4.941704E-4
-5.4839853E-4 -5.998927E-4
-1.4766556E-3 -5.389415E-4
-1.319758E-3 -2.252059E-4
8.24749E-4 6.965937E-4
-1.3905648E-3 -6.183218E-4
1.4663073E-3 4.973011E-4
7.3300145E-4 2.801439E-4
-1.5038268E-3 -5.7606364E-4
7.237762E-4 -8.6281955E-4
4.735653E-4 5.2417215E-4
5.432272E-4 -1.1449849E-3
1.325674E-3 5.349355E-4
1.4957183E-3 5.789227E-4
-1.2838806E-3 -6.052775E-4
-1.2882353E-3 -6.14015E-4
-9.908665E-4 -4.0268045E-4
1.3715038E-3 5.8310694E-4
-1.1529477E-3 -3.215866E-4
1.7894777E-4 1.0277183E-4
-9.447558E-4 -7.693058E-4
-9.6058357E-4 -5.320172E-4
1.6677547E-4 -1.0727583E-3
9.7321515E-4 6.393799E-4
-8.7607326E-4 -7.032966E-4
4.3969022E-4 -3.1770833E-4
1.4688137E-3 5.278692E-4
-1.1384564E-3 -5.821741E-4
-3.5058326E-4 -8.982089E-4
-1.303371E-3 -3.00614E-4
-5.6992064E-4 1.4958392E-3
-2.9934893E-4 1.1634125E-3
-1.233812E-3 -4.8597748E-4
1.3347241E-3 3.7050215E-4
-5.746567E-4 1.1834699E-3
-1.2664041E-5 2.067453E-4
-1.1845275E-3 4.2007437E-7
-5.3861755E-4 1.3107258E-3
-1.4557096E-3 -4.8091228E-4
-1.2249558E-3 -1.9918063E-4
2.3890121E-4 -2.2407487E-4
1.2103643E-3 6.247622E-4
6.371339E-4 -1.3533471E-3
-5.322374E-4 1.2322982E-3
-5.997183E-4 1.3966165E-3
7.1281954E-3 -2.3513776E-3
-3.325684E-3 2.953516E-4
-1.5663572E-3 -8.251705E-3
5.1111784E-3 -7.582022E-4
-1.4378419E-3 -9.004734E-3
-2.4668174E-4 -4.6078763E-3
5.6654555E-3 8.7288953E-4
7.8048026E-3 -9.826905E-4
-9.062573E-3 1.4867218E-3
7.9478035E-3 -7.205781E-4
-7.2122E-3 -2.8891358E-4
-5.9664166E-3 -2.9743462E-5
-7.1042506E-3 4.526562E-4
-8.61994E-3 1.3957479E-3
-7.888519E-3 1.1440045E-3
5.7354514E-3 -1.9680702E-3
-1.3878954E-3 -4.0578195E-3
-8.62116E-3 1.6357552E-3
4.229154E-3 2.4921892E-3
-3.8578426E-3 1.9461674E-3
8.943497E-3 -1.319105E-3
8.890012E-3 -1.4941365E-3
8.685737E-3 -1.1467114E-3
-8.760311E-3 1.1439672E-3
-1.1193393E-3 4.860621E-3
-5.656797E-4 3.1555593E-3
6.0090814E-3 8.103191E-4
8.937589E-3 -1.5507808E-3
-4.1410938E-4 -7.6786806E-3
8.319103E-3 -1.9587695E-3
9.058213E-3 -1.4962645E-3
-3.5089357E-3 -4.0160404E-3
-1.7572154E-3 2.6858624E-3
6.2110354E-3 3.7637362E-4
7.2615594E-3 -1.1944567E-3
-9.03355E-3 1.4627764E-3
7.5369934E-3 -1.9669157E-4
5.9330417E-3 -2.2874225E-3
-4.860388E-3 -2.494579E-4
-7.45288E-3 3.2812636E-4
-6.3918354E-3 2.3646462E-3
8.648105E-3 -1.2028121E-3
7.3948964E-3 -2.0894477E-4
-5.7453923E-3 2.635156E-4
9.03578E-3 -1.50179E-3
-5.875478E-3 3.1094437E-3
-5.6113596E-3 2.9215422E-3
-5.204829E-3 -5.9427362E-5
6.756883E-3 -1.0978059E-3
-8.970141E-3 1.4405464E-3
8.382839E-3 -8.3610596E-4
-8.867208E-3 1.2830915E-3
-5.7006744E-3 -1.5276013E-3
-6.438115E-3 2.7023258E-3
2.0958218E-3 -5.0540065E-4
7.018621E-3 -2.27051E-3
6.2248954E-3 1.0577194E-4
4.7681415E-3 5.0672615E-4
-7.0209466E-3 1.1635884E-3
-5.72273E-3 2.0617469E-4
-1.2778424E-3 -8.73959E-3
7.565205E-3 -1.4590883E-3
-1.0390066E-3 2.9892724E-3
7.296911E-3 -1.6454144E-3
8.634367E-3 -1.6049817E-3
9.040748E-3 -1.4708099E-3
5.4819556E-3 5.055935E-4
-8.884553E-3 1.4685222E-3
7.916799E-3 -2.0902804E-3
-8.884122E-3 1.3176436E-3
-6.3416394E-3 2.2638505E-3
-2.753721E-3 4.51436E-3
-8.875233E-3 1.5376535E-3
-6.0517034E-3 -1.6973574E-3
9.39328E-4 -5.51328E-4
6.2044705E-3 0
-8.2911905E-3 1.6023157E-3
-4.4239555E-3 -1.3658343E-3
-8.808528E-3 1.6102381E-3
-7.133067E-3 2.699138E-3
6.0604434E-3 1.0440478E-3
-8.614477E-3 9.7201613E-4
8.63762E-3 -1.7849687E-3
4.408873E-3 -7.373256E-4
-9.049057E-3 1.5062129E-3
1.0678126E-3 -6.3258563E-3
3.8379754E-3 1.2096176E-3
-6.3280965E-4 -7.191459E-3
8.055238E-3 -1.1945624E-3
9.017464E-3 -1.4687853E-3
-8.052747E-3 7.2847586E-4
-8.099334E-3 6.981077E-4
-6.0290424E-3 8.788844E-4
8.419291E-3 -1.090057E-3
-6.5914774E-3 1.7446424E-3
1.1754745E-3 -1.1100666E-5
-6.859676E-3 -1.0552264E-3
-6.2532118E-3 1.5616014E-4
-2.2739698E-3 -5.7511264E-3
6.624848E-3 3.3486646E-4
-6.331916E-3 -9.289844E-4
1.2439898E-3 -2.8286802E-3
8.738076E-3 -1.6420215E-3
-7.27169E-3 4.2264705E-4
-4.312327E-3 -3.4017977E-3
-7.2700004E-3 2.281423E-3
1.5133605E-3 8.992102E-3
1.8840662E-3 6.5787667E-3
-7.4627683E-3 1.1701983E-3
7.625554E-3 -2.0284844E-3
5.8937503E-4 7.471155E-3
5.33935E-4 1.0522117E-3
-5.818116E-3 3.4176523E-3
1.1333708E-3 7.992417E-3
-8.538297E-3 1.8349243E-3
-6.5922807E-3 2.5536325E-3
5.275493E-4 -1.7897036E-3
7.747761E-3 -4.2076755E-4
-7.7227864E-4 -8.485879E-3
9.385683E-4 7.5887227E-3
1.0808618E-3 8.590564E-3
-1.0132835E-2 1.3013366E-3
4.5204707E-3 4.64178E-4
-3.7854872E-5 1.1431476E-2
-7.0260046E-3 -3.067663E-4
-4.040646E-4 1.240458E-2
-8.6034543E-4 6.2213275E-3
-7.3454664E-3 -2.6295786E-3
-1.0683537E-2 -7.024103E-4
1.2494495E-2 3.536821E-4
-1.0806941E-2 -1.0896085E-3
9.563234E-3 2.2486467E-3
7.965392E-3 1.580585E-3
9.61049E-3 1.2297899E-3
1.1879497E-2 3.6094157E-4
1.0837069E-2 5.0846254E-4
-8.172686E-3 1.1487913E-3
8.0674037E-4 5.7809935E-3
1.1943111E-2 4.0529605E-5
-5.0079124E-3 -4.422562E-3
5.657934E-3 -1.6044182E-3
-1.2292082E-2 -5.4692075E-4
-1.2265811E-2 -2.9920964E-4
-1.190311E-2 -7.1072846E-4
1.2002056E-2 7.3365413E-4
2.7510657E-3 -6.206299E-3
1.5708609E-3 -4.070766E-3
-7.82082E-3 -2.6347064E-3
-1.2344019E-2 -2.3580107E-4
-1.4296486E-3 1.036816E-2
-1.1622882E-2 4.6912988E-4
-1.2491131E-2 -3.3980387E-4
3.6519296E-3 6.2729255E-3
3.04184E-3 -3.135382E-3
-8.202764E-3 -2.106969E-3
-1.00122765E-2 -2.791282E-4
1.2449525E-2 3.7818524E-4
-1.0122671E-2 -1.6835983E-3
-8.519205E-3 1.5245214E-3
6.430636E-3 1.5885611E-3
1.00442115E-2 1.4862359E-3
9.152246E-3 -1.5092331E-3
-1.186731E-2 -6.260403E-4
-9.935947E-3 -1.6305277E-3
7.7457665E-3 1.1316157E-3
-1.2462582E-2 -3.26627E-4
8.654568E-3 -2.6378753E-3
8.253096E-3 -2.4549868E-3
6.939997E-3 1.4235709E-3
-9.3129035E-3 -2.7795162E-4
1.2359049E-2 3.9151663E-4
-1.1418126E-2 -1.0475742E-3
1.2180835E-2 5.753448E-4
7.2234496E-3 3.513582E-3
9.301297E-3 -1.9485311E-3
-2.93122E-3 1.3412996E-4
-9.965524E-3 1.2215686E-3
-8.291169E-3 -1.7489364E-3
-6.2409253E-3 -1.9085321E-3
9.682768E-3 2.5823974E-4
7.700674E-3 1.2023889E-3
-5.494024E-4 1.2008939E-2
-1.0486389E-2 -3.9118854E-6
2.1604358E-3 -3.7263148E-3
-1.0175979E-2 3.1436808E-4
-1.1952813E-2 -8.506338E-5
-1.246122E-2 -3.693089E-4
-7.1951053E-3 -2.0913624E-3
1.22519005E-2 3.3202808E-4
-1.1119237E-2 7.4876664E-4
1.221236E-2 5.335398E-4
9.059136E-3 -1.3875009E-3
4.8457086E-3 -5.3215E-3
1.22573E-2 2.3724028E-4
7.6486985E-3 3.8310855E-3
-1.3976292E-3 4.941704E-4
-8.2911905E-3 -1.6023157E-3
1.1493529E-2 0
5.5591143E-3 2.9676936E-3
1.2186906E-2 1.2301664E-4
1.0229155E-2 -1.764799E-3
-7.829097E-3 -2.9603078E-3
1.1762769E-2 9.257744E-4
-1.2003642E-2 1.5461785E-4
-6.0821036E-3 -1.5329289E-4
1.2481466E-2 3.2414496E-4
-3.0606089E-3 8.177637E-3
-4.8163976E-3 -2.607607E-3
-1.011568E-3 9.773553E-3
-1.1072916E-2 -4.8395575E-4
-1.2429583E-2 -3.6600156E-4
1.0949219E-2 1.1061553E-3
1.1003634E-2 1.158769E-3
8.283735E-3 3.825358E-4
-1.1532422E-2 -7.176265E-4
9.258915E-3 -6.2914885E-4
-1.5736831E-3 -2.887343E-4
8.894244E-3 3.1816496E-3
8.396653E-3 1.4062228E-3
1.5535243E-3 8.272633E-3
-8.766472E-3 -2.1583696E-3
8.221588E-3 2.8766545E-3
-2.3928871E-3 3.4587742E-3
-1.2100968E-2 -6.234908E-5
9.826493E-3 1.3131332E-3
4.8841517E-3 5.6595746E-3
1.03042675E-2 -1.171232E-3
2.9988494E-4 -1.2407201E-2
-8.187472E-4 -9.277936E-3
1.0274892E-2 3.6350774E-4
-1.0714081E-2 7.414015E-4
1.1418428E-3 -1.01361E-2
-4.4177522E-4 -1.5439868E-3
8.65751E-3 -3.064556E-3
5.495044E-4 -1.0973165E-2
1.1883816E-2 -2.4702487E-4
9.468912E-3 -1.7100151E-3
-1.1671719E-3 2.2553857E-3
-1.0462193E-2 -1.4385908E-3
-1.1594781E-3 1.1539336E-2
7.055688E-4 -1.0383389E-2
7.7414594E-4 -1.1758923E-2
-4.5649703E-3 3.2457763E-3
2.3062846E-3 -9.4270014E-4
2.9333616E-3 5.538875E-3
-3.4774998E-3 1.6657787E-3
3.0074962E-3 6.104097E-3
1.1902552E-3 3.2312365E-3
-4.231778E-3 6.247831E-4
-5.3487085E-3 2.418812E-3
6.134577E-3 -3.0550815E-3
-5.508373E-3 2.263398E-3
5.206094E-3 -1.3816698E-3
4.2607635E-3 -1.2922217E-3
4.965876E-3 -1.8866655E-3
5.8389935E-3 -2.8927745E-3
5.37289E-3 -2.5522618E-3
-3.6562867E-3 2.665873E-3
1.8828835E-3 2.5878076E-3
5.7870294E-3 -3.0641747E-3
-3.5641245E-3 -8.460045E-4
2.3223225E-3 -2.2369244E-3
-6.0865707E-3 2.9093532E-3
-6.0099037E-3 3.0223809E-3
-5.9407316E-3 2.729689E-3
5.9945085E-3 -2.7441487E-3
-2.7188385E-4 -3.7121621E-3
-2.913108E-4 -2.374526E-3
-4.4630184E-3 7.4504217E-4
-6.031358E-3 3.0732437E-3
1.9856337E-3 5.3839455E-3
-5.500547E-3 3.2279987E-3
-6.129367E-3 3.0609255E-3
3.3860453E-3 2.0910983E-3
6.6168385E-4 -2.3019207E-3
-4.51149E-3 1.0989145E-3
-4.914744E-3 2.4502184E-3
6.119153E-3 -3.0316187E-3
-5.3307805E-3 1.7994182E-3
-3.7268726E-3 2.9370768E-3
3.520503E-3 -8.9208153E-4
5.241872E-3 -1.8746186E-3
4.037005E-3 -3.0931365E-3
-5.901549E-3 2.7614066E-3
-5.2267644E-3 1.7768742E-3
4.0386105E-3 -1.4526676E-3
-6.112156E-3 3.0599274E-3
3.5048705E-3 -3.510528E-3
3.3579112E-3 -3.3184069E-3
3.7242658E-3 -1.1034027E-3
-4.5761727E-3 2.2702056E-3
6.078835E-3 -3.0018094E-3
-5.793133E-3 2.44154E-3
6.040103E-3 -2.8668807E-3
4.401017E-3 -1.6570912E-4
3.995668E-3 -3.3440993E-3
-1.3831201E-3 8.217324E-4
-4.5046424E-3 3.163994E-3
-4.4618025E-3 1.2949121E-3
-3.5113632E-3 6.883354E-4
4.7499756E-3 -2.3752407E-3
4.0350743E-3 -1.4067936E-3
2.835044E-3 5.950263E-3
-5.0729965E-3 2.7057517E-3
8.279002E-5 -2.3601556E-3
-4.8406785E-3 2.7795457E-3
-5.8032214E-3 3.0451398E-3
-6.1225174E-3 3.0389316E-3
-4.0200823E-3 8.4628013E-4
6.01165E-3 -3.0029155E-3
-5.184743E-3 3.2332079E-3
6.044556E-3 -2.8952404E-3
4.0234025E-3 -3.0102166E-3
9.696996E-4 -3.8250568E-3
5.9897867E-3 -3.0501566E-3
4.6886797E-3 -1.2194282E-4
-5.4839853E-4 5.998927E-4
-4.4239555E-3 1.3658343E-3
5.5591143E-3 -2.9676936E-3
3.4550705E-3 0
5.9262454E-3 -3.0872272E-3
4.4918894E-3 -3.4948115E-3
-4.551093E-3 5.8969425E-4
5.9283776E-3 -2.5894397E-3
-5.7659186E-3 3.1741913E-3
-2.9813326E-3 1.4962895E-3
6.1206482E-3 -3.0660038E-3
6.311764E-4 4.7455714E-3
-3.0028622E-3 -1.7609278E-5
2.0343177E-3 4.9884E-3
-5.4806345E-3 2.6250118E-3
-6.1063617E-3 3.032362E-3
5.5814614E-3 -2.2921313E-3
5.6213653E-3 -2.280734E-3
4.105395E-3 -1.9538843E-3
-5.76322E-3 2.6306387E-3
4.3158405E-3 -2.6950063E-3
-8.3570136E-4 2.6668064E-4
5.1234285E-3 -7.5766427E-4
4.424332E-3 -1.4879104E-3
2.8874383E-3 3.6001233E-3
-4.7974125E-3 1.2196063E-3
4.7193314E-3 -7.3149876E-4
-2.6430096E-4 2.290774E-3
-5.8690147E-3 3.0943807E-3
5.0918716E-3 -1.9021276E-3
3.823668E-3 1.4762703E-3
4.681481E-3 -3.227113E-3
-3.058562E-3 -6.078465E-3
-2.791621E-3 -4.2760856E-3
5.0635515E-3 -2.4772154E-3
-4.9906815E-3 3.1250317E-3
-2.0649189E-3 -5.1973923E-3
-6.123409E-4 -6.3271646E-4
3.3961216E-3 -3.7176616E-3
-2.5675518E-3 -5.4493123E-3
5.684102E-3 -3.187947E-3
4.138325E-3 -3.272015E-3
1.7823253E-5 1.3922402E-3
-5.4317364E-3 2.0055885E-3
2.4187125E-3 5.8806534E-3
-2.339784E-3 -5.20435E-3
-2.6617856E-3 -5.8873664E-3
-1.0730196E-2 1.4882955E-3
4.7981483E-3 4.4379776E-4
8.221383E-5 1.2121515E-2
-7.453149E-3 -2.5007283E-4
-2.956734E-4 1.3157242E-2
-8.4566046E-4 6.605854E-3
-7.816746E-3 -2.7095957E-3
-1.1335568E-2 -6.3043804E-4
1.3252043E-2 2.4128877E-4
-1.1470561E-2 -1.0396736E-3
1.0164228E-2 2.2819457E-3
8.4628435E-3 1.5906835E-3
1.02034295E-2 1.201118E-3
1.2600022E-2 2.5556865E-4
1.1496286E-2 4.2314632E-4
-8.65343E-3 1.3055687E-3
9.172839E-4 6.1211125E-3
1.2664044E-2 -8.485401E-5
-5.3573633E-3 -4.6357643E-3
5.9820917E-3 -1.7617662E-3
-1.3039487E-2 -4.4835117E-4
-1.3008981E-2 -1.8597799E-4
-1.2628804E-2 -6.262041E-4
1.2733963E-2 6.494547E-4
2.8506042E-3 -6.6101556E-3
1.6220574E-3 -4.3331585E-3
-8.320833E-3 -2.7099445E-3
-1.3091227E-2 -1.1790704E-4
-1.4049239E-3 1.1008948E-2
-1.2319042E-2 6.2183203E-4
-1.3248329E-2 -2.2660923E-4
3.939382E-3 6.612269E-3
3.1917887E-3 -3.3570891E-3
-8.720168E-3 -2.1462822E-3
-1.0619281E-2 -1.8880478E-4
1.3204622E-2 2.6775151E-4
-1.0751367E-2 -1.6768218E-3
-9.016831E-3 1.7076746E-3
6.8355845E-3 1.6155672E-3
1.0666062E-2 1.4683926E-3
9.688226E-3 -1.6982392E-3
-1.2589937E-2 -5.36791E-4
-1.0552811E-2 -1.6225477E-3
8.2251625E-3 1.1169795E-3
-1.3217916E-2 -2.1294285E-4
9.148445E-3 -2.889643E-3
8.724709E-3 -2.691424E-3
7.373907E-3 1.4351718E-3
-9.877704E-3 -1.9504258E-4
1.3108832E-2 2.828551E-4
-1.2118166E-2 -9.885626E-4
1.2921835E-2 4.796812E-4
7.69683E-3 3.6482345E-3
9.841567E-3 -2.1656344E-3
-3.106618E-3 1.7359489E-4
-1.0553646E-2 1.4019251E-3
-8.810075E-3 -1.765704E-3
-6.637852E-3 -1.9568722E-3
1.0269669E-2 1.7018287E-4
8.1781065E-3 1.192505E-3
-4.540129E-4 1.273929E-2
-1.1119048E-2 1.0808911E-4
2.2508868E-3 -3.974238E-3
-1.0786506E-2 4.4224795E-4
-1.2674808E-2 3.773697E-5
-1.3216928E-2 -2.582145E-4
-7.6515535E-3 -2.1405192E-3
1.2994583E-2 2.2092558E-4
-1.178202E-2 9.1294874E-4
1.2954813E-2 4.3501693E-4
9.590802E-3 -1.568166E-3
5.081082E-3 -5.6943973E-3
1.2999293E-2 1.2036142E-4
8.151132E-3 3.9803404E-3
-1.4766556E-3 5.389415E-4
-8.808528E-3 -1.6102381E-3
1.2186906E-2 -1.2301664E-4
5.9262454E-3 3.0872272E-3
1.2923431E-2 0
1.0827367E-2 -1.9807487E-3
-8.333092E-3 -3.0551E-3
1.2482297E-2 8.5572596E-4
-1.2726137E-2 2.9242176E-4
-6.4506633E-3 -9.7443226E-5
1.3237913E-2 2.1010915E-4
-3.1577218E-3 8.703733E-3
-5.1348694E-3 -2.713367E-3
-9.6798595E-4 1.0373996E-2
-1.1746098E-2 -3.9463694E-4
-1.3183347E-2 -2.5504624E-4
1.1621598E-2 1.0556964E-3
1.1679859E-2 1.1109015E-3
8.787568E-3 3.1695134E-4
-1.2235826E-2 -6.3748646E-4
9.81075E-3 -7.6620304E-4
-1.67171E-3 -2.8930957E-4
9.4648665E-3 3.278395E-3
8.918255E-3 1.4011863E-3
1.7357876E-3 8.755074E-3
-9.318435E-3 -2.1947504E-3
8.748366E-3 2.9621995E-3
-2.5002246E-3 3.6930451E-3
-1.2831657E-2 6.3407344E-5
1.0433357E-2 1.287177E-3
5.2393763E-3 5.9487275E-3
1.0913364E-2 -1.3521772E-3
1.8518032E-4 -1.3158907E-2
-9.6744276E-4 -9.828889E-3
1.0898643E-2 2.7546388E-4
-1.1352501E-2 9.008025E-4
1.1022398E-3 -1.0759809E-2
-4.8495198E-4 -1.6324035E-3
9.146997E-3 -3.342096E-3
4.6520782E-4 -1.1641031E-2
1.2598094E-2 -3.8912162E-4
1.0021846E-2 -1.9145232E-3
-1.2134447E-3 2.40394E-3
-1.110875E-2 -1.4133994E-3
-1.10592E-3 1.22478865E-2
6.3699944E-4 -1.1017346E-2
6.9499144E-4 -1.2476595E-2
-9.217964E-3 -3.9768856E-4
3.951912E-3 1.1072205E-3
-1.7889618E-3 1.0168117E-2
-6.2059877E-3 -1.3518428E-3
-2.2643027E-3 1.097794E-2
-1.7209684E-3 5.4048314E-3
-6.1336453E-3 -3.4681812E-3
-9.400415E-3 -2.2655667E-3
1.10657E-2 2.2332687E-3
-9.450791E-3 -2.6291183E-3
8.165933E-3 3.4696858E-3
6.846445E-3 2.6297725E-3
8.364433E-3 2.5701672E-3
1.0517242E-2 2.1452983E-3
9.566837E-3 2.1165288E-3
-7.4500237E-3 -2.3247706E-4
-1.6966207E-4 5.2689137E-3
1.0623056E-2 1.8699015E-3
-3.7779333E-3 -4.704998E-3
5.281873E-3 -5.5916037E-4
-1.0855882E-2 -2.3741692E-3
-1.0870537E-2 -2.149675E-3
-1.0484549E-2 -2.4602315E-3
1.056909E-2 2.4958283E-3
3.4013877E-3 -5.1011415E-3
2.023109E-3 -3.3817496E-3
-6.55592E-3 -3.5457334E-3
-1.0949877E-2 -2.10525E-3
-2.8643778E-3 9.008067E-3
-1.0416312E-2 -1.3671389E-3
-1.1064838E-2 -2.2204006E-3
2.287E-3 6.1436E-3
3.1886438E-3 -2.3234005E-3
-6.9768797E-3 -3.134698E-3
-8.867992E-3 -1.7857789E-3
1.1021914E-2 2.2481713E-3
-8.75059E-3 -3.0526975E-3
-7.816114E-3 4.8712773E-5
5.4792995E-3 2.4012134E-3
8.711065E-3 2.8649992E-3
8.377168E-3 6.209498E-5
-1.0465691E-2 -2.379363E-3
-8.592556E-3 -2.9767938E-3
6.7199185E-3 2.1964698E-3
-1.1041451E-2 -2.2042897E-3
8.10754E-3 -1.0188048E-3
7.7221496E-3 -9.1768027E-4
5.9579606E-3 2.3325842E-3
-8.245735E-3 -1.6773449E-3
1.0939346E-2 2.2461438E-3
-1.0001194E-2 -2.685554E-3
1.0752509E-2 2.3823853E-3
5.8893156E-3 4.2362018E-3
8.577277E-3 -3.059902E-4
-2.6293593E-3 -3.3070587E-4
-9.05681E-3 -4.4299115E-4
-7.1105342E-3 -2.8296257E-3
-5.261327E-3 -2.6568556E-3
8.577938E-3 1.7165932E-3
6.6689188E-3 2.2525338E-3
-2.3329023E-3 1.0603506E-2
-9.332205E-3 -1.6136365E-3
2.4949368E-3 -2.9846637E-3
-9.104815E-3 -1.2827073E-3
-1.0624853E-2 -1.9110263E-3
-1.1033686E-2 -2.242067E-3
-6.0824673E-3 -2.9660848E-3
1.0853118E-2 2.1767474E-3
-1.0011009E-2 -1.0409306E-3
1.0786985E-2 2.3500195E-3
8.275611E-3 1.561392E-4
5.1297457E-3 -3.9920504E-3
1.0872479E-2 2.0932162E-3
6.2190327E-3 4.584073E-3
-1.319758E-3 2.252059E-4
-7.133067E-3 -2.699138E-3
1.0229155E-2 1.764799E-3
4.4918894E-3 3.4948115E-3
1.0827367E-2 1.9807487E-3
9.374851E-3 0
-6.51329E-3 -3.836787E-3
1.0326626E-2 2.6300722E-3
-1.0706891E-2 -1.705517E-3
-5.3894892E-3 -1.0703192E-3
1.105864E-2 2.2049805E-3
-3.979572E-3 6.808088E-3
-3.8861674E-3 -3.060295E-3
-2.4009894E-3 8.543067E-3
-9.780502E-3 -2.130932E-3
-1.1006037E-2 -2.2342654E-3
9.574876E-3 2.6656913E-3
9.615226E-3 2.7208724E-3
7.3137255E-3 1.6123981E-3
-1.01535795E-2 -2.4094526E-3
8.33697E-3 8.617422E-4
-1.3562319E-3 -4.9860595E-4
7.4272775E-3 4.19733E-3
7.257038E-3 2.54081E-3
1.12386006E-4 7.601121E-3
-7.470684E-3 -3.2669997E-3
6.875449E-3 3.8226023E-3
-2.6607367E-3 2.710862E-3
-1.0760197E-2 -1.9135596E-3
8.543877E-3 2.6775089E-3
3.477847E-3 5.7869265E-3
9.35056E-3 5.398032E-4
2.1719856E-3 -1.099627E-2
6.9592166E-4 -8.38301E-3
9.088761E-3 1.9011999E-3
-9.649292E-3 -9.852751E-4
2.5726012E-3 -8.845727E-3
-1.5610189E-4 -1.4419701E-3
8.175673E-3 -1.3980957E-3
2.1739528E-3 -9.68166E-3
1.0614437E-2 1.604876E-3
8.689828E-3 -6.797622E-5
-1.3850821E-3 1.8280604E-3
-9.090382E-3 -2.8867752E-3
-2.8037592E-3 1.0091889E-2
2.2222907E-3 -9.1328E-3
2.4945335E-3 -1.0346484E-2
6.5670507E-3 -3.49628E-3
-3.1987836E-3 8.481198E-4
-2.9185393E-3 -7.796578E-3
4.864945E-3 -1.6006774E-3
-2.919722E-3 -8.553753E-3
-1.0163385E-3 -4.4594016E-3
5.680824E-3 -1.00718855E-4
7.4582654E-3 -2.2732199E-3
-8.602024E-3 2.9772003E-3
7.642053E-3 -2.0412551E-3
-7.0933965E-3 9.3141495E-4
-5.8329203E-3 9.749364E-4
-6.863166E-3 1.6376054E-3
-8.184973E-3 2.8138547E-3
-7.5128935E-3 2.4448766E-3
5.2711377E-3 -2.8875088E-3
-2.0385007E-3 -3.7300775E-3
-8.145779E-3 3.0484959E-3
4.55035E-3 1.7226826E-3
-3.4408004E-3 2.5501624E-3
8.513916E-3 -2.7934373E-3
8.43222E-3 -2.9554053E-3
8.2911495E-3 -2.581671E-3
-8.364454E-3 2.5915392E-3
-2.7544214E-4 4.936144E-3
-2.155135E-5 3.1774966E-3
6.0059447E-3 -2.1965997E-4
8.469162E-3 -3.0187406E-3
-1.6966144E-3 -7.430748E-3
7.796379E-3 -3.3131836E-3
8.596158E-3 -2.9857876E-3
-4.103274E-3 -3.3323534E-3
-1.2644648E-3 2.9192069E-3
6.130189E-3 -6.775154E-4
6.891998E-3 -2.3886568E-3
-8.577703E-3 2.9489268E-3
7.3289354E-3 -1.4604015E-3
5.4104025E-3 -3.2326968E-3
-4.7895387E-3 5.742072E-4
-7.224658E-3 1.5746314E-3
-5.8455514E-3 3.3853308E-3
8.244951E-3 -2.6301371E-3
7.188075E-3 -1.4484589E-3
-5.567679E-3 1.2241954E-3
8.573318E-3 -2.98741E-3
-5.2158507E-3 4.0259496E-3
-4.9894825E-3 3.7979658E-3
-5.094007E-3 8.177867E-4
6.4153005E-3 -2.209326E-3
-8.519507E-3 2.9165428E-3
8.047549E-3 -2.227306E-3
-8.4454585E-3 2.7454223E-3
-5.825397E-3 -5.3286814E-4
-5.833935E-3 3.722959E-3
1.9621248E-3 -8.463397E-4
6.4736274E-3 -3.398851E-3
6.0981917E-3 -9.4416784E-4
4.742725E-3 -3.0738834E-4
-6.6621653E-3 2.3180163E-3
-5.555192E-3 1.1643722E-3
-2.7188198E-3 -8.321686E-3
7.1440646E-3 -2.6982406E-3
-5.118725E-4 3.094718E-3
6.8506454E-3 -2.8350952E-3
8.163857E-3 -3.020659E-3
8.583383E-3 -2.9579855E-3
5.4397783E-3 -4.2861063E-4
-8.431198E-3 2.929467E-3
7.3812837E-3 -3.3739444E-3
-8.456165E-3 2.7820184E-3
-5.8134818E-3 3.2784282E-3
-1.9301508E-3 4.872944E-3
-8.410462E-3 2.9954251E-3
-6.196843E-3 -6.396148E-4
8.24749E-4 -6.965937E-4
6.0604434E-3 -1.0440478E-3
-7.829097E-3 2.9603078E-3
-4.551093E-3 -5.8969425E-4
-8.333092E-3 3.0551E-3
-6.51329E-3 3.836787E-3
6.0954443E-3 0
-8.25094E-3 2.3990402E-3
8.136747E-3 -3.1970153E-3
4.182455E-3 -1.4621058E-3
-8.5855415E-3 2.9939644E-3
-2.1448695E-5 -6.358695E-3
3.952429E-3 5.3570885E-4
-1.8282516E-3 -6.9180354E-3
7.6672337E-3 -2.522315E-3
8.560981E-3 -2.9520895E-3
-7.7432306E-3 2.066629E-3
-7.7938484E-3 2.0448053E-3
-5.741195E-3 1.8730103E-3
8.0404235E-3 -2.4814962E-3
-6.144889E-3 2.813314E-3
1.1463197E-3 -2.0864415E-4
-6.8780063E-3 1.2357037E-4
-6.0817753E-3 1.2047847E-3
-3.1889451E-3 -5.2349744E-3
6.527412E-3 -7.876932E-4
-6.3412534E-3 1.5807379E-4
7.3912076E-4 -2.972347E-3
8.258927E-3 -3.0742907E-3
-7.031769E-3 1.6364685E-3
-4.7846553E-3 -2.59718E-3
-6.717336E-3 3.4518111E-3
2.991362E-3 8.528706E-3
2.9473621E-3 6.109012E-3
-7.0926184E-3 2.39882E-3
7.107199E-3 -3.2645748E-3
1.8328903E-3 7.1985475E-3
6.985998E-4 9.3793916E-4
-5.107957E-3 4.3173507E-3
2.4519728E-3 7.6161693E-3
-8.031325E-3 3.2290984E-3
-6.0095424E-3 3.6036596E-3
2.1414351E-4 -1.8369309E-3
7.4971044E-3 -1.714743E-3
-2.1822995E-3 -8.158937E-3
2.1937615E-3 7.254625E-3
2.501335E-3 8.209266E-3
-1.0265379E-2 2.1479947E-3
4.663752E-3 1.1093907E-4
8.820346E-4 1.170231E-2
-7.215299E-3 2.519743E-4
5.856274E-4 1.2727706E-2
-3.7938723E-4 6.4363624E-3
-7.729341E-3 -2.0995187E-3
-1.0990379E-2 1.4166742E-4
1.281567E-2 -6.444329E-4
-1.1147862E-2 -2.4466115E-4
9.968377E-3 1.5310275E-3
8.279296E-3 9.7601826E-4
9.934673E-3 4.844973E-4
1.218685E-2 -5.8746664E-4
1.1131885E-2 -3.5252544E-4
-8.271601E-3 1.833991E-3
1.291283E-3 5.851433E-3
1.2226146E-2 -9.205083E-4
-5.4814504E-3 -4.122787E-3
5.661241E-3 -2.097734E-3
-1.262408E-2 4.303639E-4
-1.2577241E-2 6.817613E-4
-1.2239191E-2 2.313879E-4
1.2342301E-2 -2.1589485E-4
2.3156086E-3 -6.5732747E-3
1.2797688E-3 -4.292653E-3
-8.216244E-3 -2.0664777E-3
-1.2652173E-2 7.529542E-4
-6.2800926E-4 1.072619E-2
-1.1857364E-2 1.4163128E-3
-1.2811109E-2 6.583652E-4
4.242745E-3 6.125716E-3
2.8605487E-3 -3.4538414E-3
-8.564627E-3 -1.4956136E-3
-1.02693E-2 5.207963E-4
1.27716195E-2 -6.1573327E-4
-1.0495406E-2 -9.076818E-4
-8.595972E-3 2.2464339E-3
6.70923E-3 1.107802E-3
1.0399212E-2 7.120156E-4
9.245074E-3 -2.2817773E-3
-1.219573E-2 3.1517592E-4
-1.0300034E-2 -8.6840766E-4
8.018361E-3 5.34222E-4
-1.2780829E-2 6.695508E-4
8.64483E-3 -3.3967716E-3
8.248684E-3 -3.177261E-3
7.2172335E-3 8.97919E-4
-9.553448E-3 4.6566763E-4
1.2680098E-2 -5.9480255E-4
-1.1769977E-2 -1.5241311E-4
1.2512517E-2 -3.923131E-4
7.6756706E-3 3.0140579E-3
9.362234E-3 -2.743372E-3
-2.989081E-3 3.7337426E-4
-1.0100574E-2 2.0528815E-3
-8.626264E-3 -1.1220728E-3
-6.540848E-3 -1.4505495E-3
9.930389E-3 -5.1563344E-4
7.977914E-3 6.1028503E-4
4.0501714E-4 1.2334504E-2
-1.0732348E-2 8.406484E-4
1.9108995E-3 -3.9876224E-3
-1.0389033E-2 1.1413818E-3
-1.2239662E-2 8.7571226E-4
-1.2782873E-2 6.2575977E-4
-7.5321062E-3 -1.5608057E-3
1.2565648E-2 -6.470532E-4
-1.1319397E-2 1.6619329E-3
1.2541412E-2 -4.376364E-4
9.15959E-3 -2.1496937E-3
4.5305872E-3 -5.836467E-3
1.256354E-2 -7.444966E-4
8.136456E-3 3.304746E-3
-1.3905648E-3 6.183218E-4
-8.614477E-3 -9.7201613E-4
1.1762769E-2 -9.257744E-4
5.9283776E-3 2.5894397E-3
1.2482297E-2 -8.5572596E-4
1.0326626E-2 -2.6300722E-3
-8.25094E-3 -2.3990402E-3
1.2112882E-2 0
-1.2272376E-2 1.1251025E-3
-6.236926E-3 3.3301438E-4
1.2799957E-2 -6.736119E-4
-2.4736165E-3 8.615725E-3
-5.139259E-3 -2.2807422E-3
-2.4802948E-4 1.008398E-2
-1.1371283E-2 3.9660264E-4
-1.2750229E-2 6.2659604E-4
1.12948045E-2 2.5013543E-4
1.1354732E-2 2.995987E-4
8.508596E-3 -2.757371E-4
-1.1860374E-2 1.9446973E-4
9.425132E-3 -1.3896687E-3
-1.6338038E-3 -1.6874178E-4
9.358867E-3 2.5397718E-3
8.706614E-3 7.6283474E-4
2.2562554E-3 8.341289E-3
-9.145681E-3 -1.5028128E-3
8.6458875E-3 2.2818127E-3
-2.1703455E-3 3.7325379E-3
-1.2389458E-2 9.108924E-4
1.016245E-2 5.5239466E-4
5.4544285E-3 5.398745E-3
1.04513075E-2 -2.0286508E-3
-6.924586E-4 -1.2721998E-2
-1.5852406E-3 -9.429325E-3
1.05448635E-2 -4.5559317E-4
-1.0905343E-2 1.6217611E-3
3.5215385E-4 -1.0465514E-2
-5.7648815E-4 -1.5445711E-3
8.613473E-3 -3.8336844E-3
-3.2148365E-4 -1.1274475E-2
1.21423E-2 -1.2100227E-3
9.552985E-3 -2.5127693E-3
-1.0128475E-3 2.4022313E-3
-1.0823147E-2 -6.295871E-4
-2.5717454E-4 1.190304E-2
-1.1425901E-4 -1.0683455E-2
-1.5487074E-4 -1.2096734E-2
1.0600062E-2 -1.2227804E-3
-4.7148564E-3 -5.455915E-4
1.9331796E-4 -1.1938324E-2
7.3337094E-3 4.1489932E-4
5.888713E-4 -1.294969E-2
9.82223E-4 -6.485872E-3
7.636101E-3 2.8451015E-3
1.1148251E-2 8.773064E-4
-1.3044274E-2 -5.3746265E-4
1.1271924E-2 1.2833489E-3
-9.957424E-3 -2.477097E-3
-8.297653E-3 -1.7578905E-3
-1.0020483E-2 -1.4136571E-3
-1.2401884E-2 -5.367711E-4
-1.1311205E-2 -6.768159E-4
8.550866E-3 -1.0898341E-3
-7.647764E-4 -6.0484214E-3
-1.2472631E-2 -2.029936E-4
5.170682E-3 4.686216E-3
-5.9306314E-3 1.5995123E-3
1.2830278E-2 7.365541E-4
1.2806173E-2 4.7749598E-4
1.2421839E-2 9.023994E-4
-1.2524868E-2 -9.276738E-4
-2.9566558E-3 6.444742E-3
-1.6953419E-3 4.2303046E-3
8.132486E-3 2.8568516E-3
1.2888705E-2 4.123254E-4
1.6325783E-3 -1.0809092E-2
1.2145047E-2 -3.335929E-4
1.3040948E-2 5.2292336E-4
-3.7296247E-3 -6.6004614E-3
-3.2190236E-3 3.2336176E-3
8.538479E-3 2.31083E-3
1.0452892E-2 4.2620767E-4
-1.2996979E-2 -5.62448E-4
1.0549292E-2 1.894497E-3
8.917817E-3 -1.4775783E-3
-6.6946745E-3 -1.745574E-3
-1.0470006E-2 -1.6873195E-3
-9.578748E-3 1.4530955E-3
1.2385589E-2 8.1347174E-4
1.0354996E-2 1.8365582E-3
-8.07432E-3 -1.2860403E-3
1.3011309E-2 5.087777E-4
-9.074166E-3 2.6385246E-3
-8.652415E-3 2.45292E-3
-7.2288616E-3 -1.5801134E-3
9.7224945E-3 4.1557054E-4
-1.2902309E-2 -5.751537E-4
1.1910798E-2 1.2476711E-3
-1.2713712E-2 -7.647439E-4
-7.4967784E-3 -3.7666976E-3
-9.740326E-3 1.9098852E-3
3.0631192E-3 -1.00650446E-4
1.0424253E-2 -1.1417229E-3
8.635624E-3 1.9380957E-3
6.4922385E-3 2.0771942E-3
-1.0109039E-2 -3.999592E-4
-8.026274E-3 -1.3593478E-3
7.3533726E-4 -1.25345355E-2
1.0951747E-2 1.4515404E-4
-2.30645E-3 3.8626348E-3
1.06318435E-2 -1.9142748E-4
1.2482164E-2 2.4963496E-4
1.3009311E-2 5.53335E-4
7.486309E-3 2.2809752E-3
-1.2791204E-2 -5.115841E-4
1.162281E-2 -6.3241634E-4
-1.2747197E-2 -7.215075E-4
-9.479869E-3 1.3272127E-3
-5.1323613E-3 5.492494E-3
-1.2798119E-2 -4.1266205E-4
-7.9366295E-3 -4.1040136E-3
1.4663073E-3 -4.973011E-4
8.63762E-3 1.7849687E-3
-1.2003642E-2 -1.5461785E-4
-5.7659186E-3 -3.1741913E-3
-1.2726137E-2 -2.9242176E-4
-1.0706891E-2 1.705517E-3
8.136747E-3 3.1970153E-3
-1.2272376E-2 -1.1251025E-3
1.2538473E-2 0
6.349981E-3 2.4191629E-4
-1.3031065E-2 -5.0643954E-4
3.3064566E-3 -8.499408E-3
4.995083E-3 2.7881318E-3
1.1879435E-3 -1.019372E-2
1.155785E-2 6.5439433E-4
1.2976315E-2 5.4945564E-4
-1.1420292E-2 -1.3025444E-3
-1.1476415E-2 -1.3582256E-3
-8.646242E-3 -5.109515E-4
1.2034605E-2 9.046176E-4
-9.6783135E-3 5.3251564E-4
1.6396429E-3 3.227191E-4
-9.246192E-3 -3.4425096E-3
-8.7504005E-3 -1.5815913E-3
-1.5111851E-3 -8.660693E-3
9.126516E-3 2.3720954E-3
-8.547785E-3 -3.1149287E-3
2.5456187E-3 -3.5800927E-3
1.26372E-2 2.2790534E-4
-1.02449525E-2 -1.5036053E-3
-5.0247866E-3 -5.976465E-3
-1.0777352E-2 1.0845952E-3
-4.8010322E-4 1.295383E-2
7.302728E-4 9.700728E-3
-1.0726028E-2 -5.17865E-4
1.1199573E-2 -6.30175E-4
-1.3288775E-3 1.0570605E-2
4.406117E-4 1.6184559E-3
-9.082979E-3 3.084103E-3
-7.215099E-4 1.14527885E-2
-1.2414573E-2 9.8120756E-5
-9.91217E-3 1.6585288E-3
1.2493146E-3 -2.339784E-3
1.0907179E-2 1.6431826E-3
1.3661726E-3 -1.2035883E-2
-8.7656686E-4 1.0834738E-2
-9.666923E-4 1.2270398E-2
5.3447E-3 -8.237812E-4
-2.3983172E-3 -1.8534112E-4
-1.324331E-4 -6.049772E-3
3.722087E-3 6.862549E-5
4.8377566E-5 -6.569599E-3
3.7229861E-4 -3.3036538E-3
3.9221183E-3 1.293542E-3
5.662843E-3 2.2920917E-4
-6.616508E-3 -2.051707E-5
5.73331E-3 4.324593E-4
-5.090628E-3 -1.0623826E-3
-4.236178E-3 -7.301714E-4
-5.102046E-3 -5.225975E-4
-6.291163E-3 -3.2561304E-5
-5.741502E-3 -1.2452883E-4
4.3094708E-3 -7.16915E-4
-5.040109E-4 -3.0484053E-3
-6.3205524E-3 1.3784172E-4
2.7090542E-3 2.2735232E-3
-2.9726464E-3 9.244817E-4
6.5119737E-3 1.2547386E-4
6.4947675E-3 -5.258197E-6
6.3083237E-3 2.1734503E-4
-6.360989E-3 -2.281572E-4
-1.3730236E-3 3.3209187E-3
-7.769693E-4 2.175104E-3
4.1737333E-3 1.2899155E-3
6.5353075E-3 -3.9855535E-5
6.182527E-4 -5.505652E-3
6.144298E-3 -4.032704E-4
6.6145435E-3 1.3217961E-5
-2.0161788E-3 -3.2707767E-3
-1.5678522E-3 1.69974E-3
4.36881E-3 1.0055553E-3
5.301983E-3 1.41711325E-5
-6.593038E-3 -3.408345E-5
5.379133E-3 7.559113E-4
4.487829E-3 -9.2036393E-4
-3.424128E-3 -7.5486157E-4
-5.3349817E-3 -6.525183E-4
-4.8230225E-3 9.2071685E-4
6.2882495E-3 1.7300782E-4
5.279615E-3 7.3031755E-4
-4.113969E-3 -4.955166E-4
6.59926E-3 6.6258526E-6
-4.544611E-3 1.5113299E-3
-4.3346E-3 1.4091949E-3
-3.6914693E-3 -6.60759E-4
4.9318755E-3 2.2876317E-5
-6.5453383E-3 -4.2344676E-5
6.0561737E-3 4.0206432E-4
-6.4534834E-3 -1.4199936E-4
-3.8693405E-3 -1.762963E-3
-4.8960387E-3 1.155171E-3
1.5493435E-3 -1.10073E-4
5.257227E-3 -7.793383E-4
4.4108164E-3 8.149138E-4
3.3280046E-3 9.267128E-4
-5.127336E-3 -7.5123485E-6
-4.091051E-3 -5.335695E-4
1.3056355E-4 -6.3621737E-3
5.5492003E-3 -1.377903E-4
-1.0935526E-3 2.000692E-3
5.3806948E-3 -3.0207646E-4
6.32628E-3 -1.1440476E-4
6.599108E-3 2.9230387E-5
3.8353726E-3 1.0107361E-3
-6.4878445E-3 -1.2294265E-5
5.874051E-3 -5.445304E-4
-6.469608E-3 -1.19456425E-4
-4.7753756E-3 8.5505715E-4
-2.49326E-3 2.8806406E-3
-6.489438E-3 3.7937603E-5
-4.098607E-3 -1.9253066E-3
7.3300145E-4 -2.801439E-4
4.408873E-3 7.373256E-4
-6.0821036E-3 1.5329289E-4
-2.9813326E-3 -1.4962895E-3
-6.4506633E-3 9.7443226E-5
-5.3894892E-3 1.0703192E-3
4.182455E-3 1.4621058E-3
-6.236926E-3 -3.3301438E-4
6.349981E-3 -2.4191629E-4
3.22055E-3 0
-6.60922E-3 -5.0606104E-6
1.5105341E-3 -4.3682326E-3
2.5835023E-3 1.3156461E-3
4.04945E-4 -5.185425E-3
5.86598E-3 1.08415166E-4
6.5823225E-3 2.7902168E-5
-5.8088205E-3 -4.393181E-4
-5.8383173E-3 -4.664342E-4
-4.388659E-3 -9.194598E-5
6.112256E-3 2.2593964E-4
-4.891208E-3 4.564197E-4
8.3660684E-4 1.3180265E-4
-4.7490587E-3 -1.5650283E-3
-4.462066E-3 -6.3215103E-4
-9.32423E-4 -4.3569617E-3
4.667797E-3 1.0252371E-3
-4.3890364E-3 -1.4126035E-3
1.2201283E-3 -1.8622162E-3
6.404377E-3 -1.2840067E-4
-5.2174614E-3 -5.638199E-4
-2.6600612E-3 -2.9297716E-3
-5.4371534E-3 7.5721956E-4
6.7868486E-6 6.5695974E-3
5.570042E-4 4.898744E-3
-5.442078E-3 -5.5320328E-5
5.65975E-3 -5.352292E-4
-4.6904795E-4 5.379014E-3
2.543696E-4 8.111492E-4
-4.540477E-3 1.7371586E-3
-1.444322E-4 5.814068E-3
-6.2853396E-3 2.892179E-4
-4.987917E-3 1.0311896E-3
5.875589E-4 -1.2090636E-3
5.555532E-3 6.217306E-4
4.5966462E-4 -6.1218077E-3
-2.3488367E-4 5.504054E-3
-2.5282745E-4 6.2328684E-3
-1.0967111E-2 1.6989642E-3
4.9221227E-3 3.765889E-4
2.812862E-4 1.2415146E-2
-7.638583E-3 -1.3498485E-4
-8.895738E-5 1.3482222E-2
-7.588407E-4 6.780351E-3
-8.051013E-3 -2.648447E-3
-1.1621661E-2 -4.6148497E-4
1.3578446E-2 3.1708143E-5
-1.1766592E-2 -8.7848457E-4
1.0448667E-2 2.172225E-3
8.69464E-3 1.4918025E-3
1.0471251E-2 1.0644585E-3
1.291079E-2 5.6936187E-5
1.1782919E-2 2.465366E-4
-8.842778E-3 1.4780259E-3
1.0391225E-3 6.2551517E-3
1.2970835E-2 -2.9281125E-4
-5.5630994E-3 -4.661472E-3
6.099018E-3 -1.9018943E-3
-1.3364084E-2 -2.4726515E-4
-1.3328568E-2 2.0997011E-5
-1.29462965E-2 -4.361232E-4
1.3054395E-2 4.5822927E-4
2.8125034E-3 -6.8173544E-3
1.5910805E-3 -4.464974E-3
-8.567371E-3 -2.640609E-3
-1.3411709E-2 9.206144E-5
-1.260128E-3 1.1299683E-2
-1.2608708E-2 8.372472E-4
-1.3574401E-2 -1.6732234E-5
4.142746E-3 6.709127E-3
3.214879E-3 -3.4906738E-3
-8.967261E-3 -2.056738E-3
-1.0880763E-2 -2.0750636E-5
1.35303E-2 5.958612E-5
-1.1040255E-2 -1.5428303E-3
-9.2084855E-3 1.8958253E-3
7.0281886E-3 1.5437478E-3
1.0949487E-2 1.330716E-3
9.896371E-3 -1.8970761E-3
-1.2905031E-2 -3.4516596E-4
-1.0835986E-2 -1.4904637E-3
8.443475E-3 1.0104353E-3
-1.35430265E-2 -3.227651E-6
9.324086E-3 -3.1086958E-3
8.893262E-3 -2.8987643E-3
7.576679E-3 1.3502105E-3
-1.0121242E-2 -3.919732E-5
1.34324245E-2 7.661433E-5
-1.2429125E-2 -8.1560086E-4
1.3244077E-2 2.8127033E-4
7.94344E-3 3.6118762E-3
1.0045845E-2 -2.3783378E-3
-3.1793928E-3 2.2832664E-4
-1.0787669E-2 1.6076211E-3
-9.053168E-3 -1.6654367E-3
-6.831195E-3 -1.8965729E-3
1.0522341E-2 7.35989E-6
8.396503E-3 1.088564E-3
-2.579454E-4 1.3056672E-2
-1.1387865E-2 2.914932E-4
2.241047E-3 -4.1075433E-3
-1.1041798E-2 6.283772E-4
-1.2982626E-2 2.4472296E-4
-1.354275E-2 -4.9616545E-5
-7.872549E-3 -2.068208E-3
1.3314388E-2 1.5035268E-5
-1.2053885E-2 1.126717E-3
1.3277131E-2 2.3498267E-4
9.798693E-3 -1.7622539E-3
5.112147E-3 -5.9155747E-3
1.3317579E-2 -8.8052795E-5
8.414196E-3 3.944678E-3
-1.5038268E-3 5.7606364E-4
-9.049057E-3 -1.5062129E-3
1.2481466E-2 -3.2414496E-4
6.1206482E-3 3.0660038E-3
1.3237913E-2 -2.1010915E-4
1.105864E-2 -2.2049805E-3
-8.5855415E-3 -2.9939644E-3
1.2799957E-2 6.736119E-4
-1.3031065E-2 5.0643954E-4
-6.60922E-3 5.0606104E-6
1.3563463E-2 0
-3.0930573E-3 8.96687E-3
-5.3039365E-3 -2.6959118E-3
-8.2288065E-4 1.0642177E-2
-1.2038347E-2 -2.1327216E-4
-1.35083E-2 -4.691742E-5
1.1921566E-2 8.9244166E-4
1.1982142E-2 9.4804313E-4
9.00656E-3 1.8179575E-4
-1.2543941E-2 -4.54069E-4
1.003703E-2 -9.443516E-4
-1.7170933E-3 -2.6917105E-4
9.748488E-3 3.2042924E-3
9.158054E-3 1.29029E-3
1.920367E-3 8.939901E-3
-9.580875E-3 -2.0966588E-3
9.00941E-3 2.8920511E-3
-2.501024E-3 3.8235614E-3
-1.3142875E-2 2.735677E-4
1.0708171E-2 1.1488743E-3
5.4635867E-3 6.0083037E-3
1.1156948E-2 -1.5625112E-3
-2.4251087E-5 -1.3482131E-2
-1.1507834E-3 -1.0052339E-2
1.1168331E-2 1.0497651E-4
-1.161411E-2 1.107292E-3
9.5412845E-4 -1.1039561E-2
-5.232926E-4 -1.6642424E-3
9.315247E-3 -3.5721352E-3
2.8726825E-4 -1.193187E-2
1.2898333E-2 -6.0341053E-4
1.0234594E-2 -2.1240474E-3
-1.2038898E-3 2.4821663E-3
-1.1402052E-2 -1.2671871E-3
-9.337051E-4 1.256391E-2
4.7338E-4 -1.1295801E-2
5.09059E-4 -1.2791504E-2
3.6241696E-3 6.8629715E-3
-8.7349245E-4 -3.3399174E-3
8.1435675E-3 -3.0171513E-3
1.6526887E-3 5.0806855E-3
8.933447E-3 -3.0157205E-3
4.6555707E-3 -1.0445405E-3
8.507904E-5 5.926523E-3
2.345152E-3 7.7883727E-3
-3.0755112E-3 -8.984005E-3
2.1025222E-3 7.979282E-3
-9.4668055E-4 -7.403024E-3
-9.96517E-4 -6.088264E-3
-1.6841803E-3 -7.1653365E-3
-2.9065786E-3 -8.548368E-3
-2.5240297E-3 -7.845964E-3
2.9936666E-3 5.5089486E-3
3.8983454E-3 -2.1134142E-3
-3.151491E-3 -8.508307E-3
-1.8130937E-3 4.7408086E-3
-2.6481915E-3 -3.5983755E-3
2.8841214E-3 8.8914465E-3
3.053372E-3 8.806791E-3
2.6639933E-3 8.658313E-3
-2.67403E-3 -8.734819E-3
-5.1483577E-3 -3.047075E-4
-3.3146509E-3 -3.366317E-5
2.0801275E-4 6.266103E-3
3.119313E-3 8.845551E-3
7.757638E-3 -1.7437409E-3
3.4288396E-3 8.1447475E-3
3.0844896E-3 8.977916E-3
3.4907102E-3 -4.268761E-3
-3.0408325E-3 -1.3293468E-3
6.8520504E-4 6.397324E-3
2.4675669E-3 7.198056E-3
-3.0461021E-3 -8.958534E-3
1.4976844E-3 7.6505975E-3
3.3532728E-3 5.6554433E-3
-5.8215257E-4 -4.99841E-3
-1.6172144E-3 -7.5422176E-3
-3.5109671E-3 -6.1099217E-3
2.7147154E-3 8.61029E-3
1.4857217E-3 7.503611E-3
-1.2574744E-3 -5.8124443E-3
3.0862626E-3 8.954095E-3
-4.181469E-3 -5.4552797E-3
-3.9444356E-3 -5.218333E-3
-8.3518063E-4 -5.316885E-3
2.2821685E-3 6.7001395E-3
-3.0125245E-3 -8.897711E-3
2.2951812E-3 8.4029455E-3
-2.834274E-3 -8.819863E-3
5.7638023E-4 -6.07511E-3
-3.8632182E-3 -6.098992E-3
8.759871E-4 2.0498433E-3
3.5228613E-3 6.7651714E-3
9.634864E-4 6.364884E-3
3.0397507E-4 4.948636E-3
-2.394684E-3 -6.958048E-3
-1.1951117E-3 -5.799207E-3
8.690651E-3 -2.8069578E-3
2.789634E-3 7.4620983E-3
-3.226572E-3 -5.4486905E-4
2.9334312E-3 7.156488E-3
3.1223886E-3 8.527068E-3
3.0555315E-3 8.964491E-3
4.2797986E-4 5.67622E-3
-3.0263173E-3 -8.8056335E-3
3.4936857E-3 7.7119395E-3
-2.8724128E-3 -8.83116E-3
-3.3995605E-3 -6.0760914E-3
-5.0766054E-3 -2.0306571E-3
-3.0951973E-3 -8.7842345E-3
6.890441E-4 -6.4622215E-3
7.237762E-4 8.6281955E-4
1.0678126E-3 6.3258563E-3
-3.0606089E-3 -8.177637E-3
6.311764E-4 -4.7455714E-3
-3.1577218E-3 -8.703733E-3
-3.979572E-3 -6.808088E-3
-2.1448695E-5 6.358695E-3
-2.4736165E-3 -8.615725E-3
3.3064566E-3 8.499408E-3
1.5105341E-3 4.3682326E-3
-3.0930573E-3 -8.96687E-3
6.6333907E-3 0
-5.7275296E-4 4.1212426E-3
7.2232466E-3 -1.8828672E-3
2.6042694E-3 8.007243E-3
3.0494605E-3 8.941101E-3
-2.128636E-3 -8.084918E-3
-2.1056915E-3 -8.137645E-3
-1.9336998E-3 -5.9957365E-3
2.5603746E-3 8.396406E-3
-2.9131928E-3 -6.420175E-3
2.1362143E-4 1.1965613E-3
-1.0470473E-4 -7.1754884E-3
-1.2354163E-3 -6.348675E-3
5.4722843E-3 -3.3082485E-3
7.987432E-4 6.81209E-3
-1.4258725E-4 -6.615677E-3
3.0981165E-3 7.8150124E-4
3.1780018E-3 8.626432E-3
-1.682401E-3 -7.341216E-3
2.7261837E-3 -4.982156E-3
-3.5772512E-3 -7.019591E-3
-8.9075705E-3 3.0905425E-3
-6.38322E-3 3.053157E-3
-2.4774626E-3 -7.4073756E-3
3.3805564E-3 7.425633E-3
-7.515889E-3 1.8867194E-3
-9.809051E-4 7.254706E-4
-4.485835E-3 -5.3437515E-3
-7.953726E-3 2.5310689E-3
-3.3402964E-3 -8.389546E-3
-3.7381484E-3 -6.2817633E-3
1.9155109E-3 2.298558E-4
1.7624182E-3 7.826924E-3
8.5189855E-3 -2.247839E-3
-7.5756586E-3 2.262978E-3
-8.572611E-3 2.580476E-3
3.9509526E-3 -2.8442268E-3
-1.9996278E-3 8.310715E-4
-2.5776653E-3 -4.7989828E-3
3.0138663E-3 -1.465481E-3
-2.6449778E-3 -5.289849E-3
-1.0509402E-3 -2.802258E-3
3.674728E-3 -5.645777E-4
4.636328E-3 -2.129492E-3
-5.3160978E-3 2.6864908E-3
4.7758874E-3 -1.9952331E-3
-4.5176656E-3 1.2273669E-3
-3.6965183E-3 1.144808E-3
-4.306314E-3 1.6650432E-3
-5.0600283E-3 2.5439202E-3
-4.656664E-3 2.2455992E-3
3.1641554E-3 -2.3355915E-3
-1.6496361E-3 -2.2395125E-3
-5.0139916E-3 2.6926224E-3
3.1019545E-3 7.171122E-4
-2.00697E-3 1.955986E-3
5.2751172E-3 -2.5595906E-3
5.2079083E-3 -2.6574342E-3
5.149281E-3 -2.4026982E-3
-5.195946E-3 2.4155397E-3
2.5521862E-4 3.2249193E-3
2.652854E-4 2.0622571E-3
3.8750905E-3 -6.7027565E-4
5.2262954E-3 -2.7017493E-3
-1.753189E-3 -4.6691615E-3
4.76417E-3 -2.8335445E-3
5.3115394E-3 -2.691543E-3
-2.953529E-3 -1.8001527E-3
-5.6334893E-4 2.004012E-3
3.9154133E-3 -9.780793E-4
4.259002E-3 -2.1545768E-3
-5.3028124E-3 2.6660196E-3
4.623904E-3 -1.591075E-3
3.224121E-3 -2.5716594E-3
-3.055184E-3 7.932664E-4
-4.5462484E-3 1.6559797E-3
-3.4928669E-3 2.7088742E-3
5.1150653E-3 -2.4300644E-3
4.5336164E-3 -1.5709515E-3
-3.502623E-3 1.2831223E-3
5.2965865E-3 -2.6905877E-3
-3.0282522E-3 3.0689244E-3
-2.9015066E-3 2.9011997E-3
-3.2312009E-3 9.779677E-4
3.965661E-3 -1.9963987E-3
-5.2679223E-3 2.6399067E-3
5.0224694E-3 -2.1515104E-3
-5.2349474E-3 2.5224404E-3
-3.8241558E-3 1.6645099E-4
-3.4556617E-3 2.92678E-3
1.1979057E-3 -7.212312E-4
3.8989382E-3 -2.7728411E-3
3.871231E-3 -1.1481709E-3
3.0482786E-3 -6.1614055E-4
-4.1161813E-3 2.0885724E-3
-3.4997836E-3 1.2432341E-3
-2.4943124E-3 -5.1570283E-3
4.3952395E-3 -2.3774714E-3
-5.9925394E-5 2.0516748E-3
4.1929516E-3 -2.4404232E-3
5.0281608E-3 -2.676161E-3
5.305699E-3 -2.6723926E-3
3.4896107E-3 -7.560057E-4
-5.209525E-3 2.6405256E-3
4.489673E-3 -2.836462E-3
-5.238673E-3 2.547111E-3
-3.481468E-3 2.6367377E-3
-8.232878E-4 3.3293657E-3
-5.190283E-3 2.681472E-3
-4.074392E-3 1.298791E-4
4.735653E-4 -5.2417215E-4
3.8379754E-3 -1.2096176E-3
-4.8163976E-3 2.607607E-3
-3.0028622E-3 1.7609278E-5
-5.1348694E-3 2.713367E-3
-3.8861674E-3 3.060295E-3
3.952429E-3 -5.3570885E-4
-5.139259E-3 2.2807422E-3
4.995083E-3 -2.7881318E-3
2.5835023E-3 -1.3156461E-3
-5.3039365E-3 2.6959118E-3
-5.7275296E-4 -4.1212426E-3
2.6099298E-3 0
-1.793485E-3 -4.325138E-3
4.7499365E-3 -2.3093766E-3
5.291691E-3 -2.666601E-3
-4.8392634E-3 2.0205784E-3
-4.8740027E-3 2.0108758E-3
-3.5581123E-3 1.7190787E-3
4.995508E-3 -2.315707E-3
-3.7372373E-3 2.3642732E-3
7.249635E-4 -2.3603608E-4
-4.449E-3 6.8461144E-4
-3.8376811E-3 1.315718E-3
-2.5278716E-3 -3.1142142E-3
4.1632997E-3 -1.0844318E-3
-4.097925E-3 6.5981114E-4
2.1803334E-4 -1.9922983E-3
5.085092E-3 -2.7192924E-3
-4.4157403E-3 1.679124E-3
-3.3307406E-3 -1.2635645E-3
-4.05231E-3 2.8286001E-3
2.6892298E-3 5.2673114E-3
2.44804E-3 3.7021926E-3
-4.3881955E-3 2.1787982E-3
4.3215617E-3 -2.7414556E-3
1.8211461E-3 4.5066206E-3
5.354209E-4 5.467841E-4
-2.932681E-3 3.2483935E-3
2.2592773E-3 4.723007E-3
-4.923905E-3 2.79967E-3
-3.5800142E-3 2.8648565E-3
-2.2586213E-5 -1.2099295E-3
4.710595E-3 -1.7707758E-3
-2.1321168E-3 -5.098651E-3
2.0600718E-3 4.5112665E-3
2.34341E-3 5.103247E-3
1.9984054E-3 8.501951E-3
-3.1404447E-6 -3.8848477E-3
9.724119E-3 -9.739164E-4
3.5751268E-4 6.001581E-3
1.058383E-2 -7.481536E-4
5.366043E-3 1.8404603E-4
-1.5895806E-3 6.4776717E-3
3.4298233E-4 9.146595E-3
-7.989105E-4 -1.0655856E-2
2.458853E-5 9.285611E-3
1.0704638E-3 -8.330029E-3
6.430053E-4 -6.9125034E-3
1.9991718E-4 -8.280542E-3
-7.3861005E-4 -1.013353E-2
-5.214195E-4 -9.260082E-3
1.696172E-3 6.8485592E-3
4.84488E-3 -1.1948104E-3
-1.0166722E-3 -1.01594245E-2
-3.3199813E-3 4.6477304E-3
-1.8622869E-3 -4.670032E-3
6.167749E-4 1.0500741E-2
8.251041E-4 1.0456599E-2
4.4324645E-4 1.0184395E-2
-4.324597E-4 -1.0270551E-2
-5.51967E-3 -1.7931478E-3
-3.5998411E-3 -9.775098E-4
-1.5521038E-3 6.8823416E-3
8.859071E-4 1.0517523E-2
8.942419E-3 3.031833E-4
1.4218785E-3 9.842261E-3
8.1041566E-4 1.0651774E-2
5.0127856E-3 -3.65752E-3
-2.9338987E-3 -2.3106858E-3
-1.0697255E-3 7.1606813E-3
6.438426E-4 8.538533E-3
-7.7411626E-4 -1.0619772E-2
-5.4073625E-4 8.756017E-3
2.0461727E-3 7.110153E-3
7.848644E-4 -5.6081214E-3
3.798143E-4 -8.671929E-3
-2.0888876E-3 -7.6498054E-3
5.121102E-4 1.0146498E-2
-5.120415E-4 8.592566E-3
2.8055237E-4 -6.6862293E-3
8.191082E-4 1.06263375E-2
-3.0048296E-3 -7.1272715E-3
-2.8139756E-3 -6.801974E-3
5.997345E-4 -6.0267374E-3
5.8329006E-4 7.943716E-3
-7.5481704E-4 -1.05440095E-2
1.14124035E-4 9.801634E-3
-5.8281317E-4 -1.0408644E-2
2.352034E-3 -6.451717E-3
-2.475564E-3 -7.73789E-3
3.7204014E-4 2.4807658E-3
1.9158493E-3 8.3666975E-3
-7.5749075E-4 7.204345E-3
-1.0736495E-3 5.4749614E-3
-6.326042E-4 -8.256496E-3
3.447033E-4 -6.6541135E-3
1.0260187E-2 -5.897446E-4
9.1960124E-4 8.917472E-3
-3.358826E-3 -1.5091724E-3
1.1629318E-3 8.625504E-3
9.796561E-4 1.0171593E-2
7.826934E-4 1.0628935E-2
-1.1451404E-3 6.302442E-3
-7.959723E-4 -1.04476595E-2
1.6153415E-3 9.3893735E-3
-6.211364E-4 -1.0431771E-2
-1.977177E-3 -7.5813443E-3
-4.951632E-3 -3.6522062E-3
-8.7705103E-4 -1.0443909E-2
2.5845969E-3 -6.841273E-3
5.432272E-4 1.1449849E-3
-6.3280965E-4 7.191459E-3
-1.011568E-3 -9.773553E-3
2.0343177E-3 -4.9884E-3
-9.6798595E-4 -1.0373996E-2
-2.4009894E-3 -8.543067E-3
-1.8282516E-3 6.9180354E-3
-2.4802948E-4 -1.008398E-2
1.1879435E-3 1.019372E-2
4.04945E-4 5.185425E-3
-8.2288065E-4 -1.0642177E-2
7.2232466E-3 1.8828672E-3
-1.793485E-3 4.325138E-3
8.399998E-3 0
5.630159E-4 9.458477E-3
7.8272144E-4 1.0601741E-2
-2.3039956E-5 -9.408053E-3
1.6911119E-5 -9.458955E-3
-4.0377735E-4 -7.0777643E-3
4.0475532E-4 9.869785E-3
-1.3498934E-3 -7.817971E-3
-1.07023065E-4 1.3635977E-3
1.9227247E-3 -7.843268E-3
4.567793E-4 -7.2638816E-3
6.8979263E-3 -2.049134E-3
-1.0638213E-3 7.644556E-3
1.7225728E-3 -7.2444296E-3
3.1517805E-3 1.7303844E-3
1.0120107E-3 1.0295577E-2
2.5177753E-4 -8.471557E-3
4.382771E-3 -4.651362E-3
-1.9028591E-3 -8.659179E-3
-1.0576891E-2 8.3697395E-4
-7.817457E-3 1.5127928E-3
-5.952034E-4 -8.769276E-3
1.5734199E-3 9.045496E-3
-8.719756E-3 -7.8871126E-5
-1.2740518E-3 5.115541E-4
-3.367918E-3 -7.09222E-3
-9.379423E-3 4.9849704E-4
-1.2559763E-3 -1.0083694E-2
-2.2874933E-3 -7.901412E-3
2.0205984E-3 7.9400674E-4
-3.0251127E-4 9.023167E-3
9.914554E-3 -2.96343E-5
-8.891641E-3 3.138798E-4
-1.0067365E-2 3.7662854E-4
9.707221E-3 -1.6803744E-3
-4.374586E-3 -2.568485E-4
-4.448731E-4 -1.1014728E-2
6.7817993E-3 -3.0268123E-7
-1.3303988E-4 -1.19676385E-2
5.669002E-4 -6.0298797E-3
7.1873767E-3 2.224053E-3
1.0322141E-2 2.2685561E-4
-1.2052142E-2 1.853645E-4
1.0457334E-2 5.946875E-4
-9.307944E-3 -1.7636782E-3
-7.7404464E-3 -1.1873452E-3
-9.31057E-3 -7.8011747E-4
-1.1459958E-2 1.524749E-4
-1.0461888E-2 -3.3540087E-5
7.825229E-3 -1.4508765E-3
-1.0206364E-3 -5.5354643E-3
-1.15077505E-2 4.6384017E-4
5.0108647E-3 4.0498483E-3
-5.383321E-3 1.7839407E-3
1.1865274E-2 9.325184E-6
1.1829534E-2 -2.2821433E-4
1.1497433E-2 1.835167E-4
-1.1593725E-2 -2.014369E-4
-2.389061E-3 6.095014E-3
-1.3419671E-3 3.9879372E-3
7.645551E-3 2.2089775E-3
1.1902209E-2 -2.9259536E-4
9.4075926E-4 -1.0048927E-2
1.1177781E-2 -9.413642E-4
1.2048318E-2 -1.9859303E-4
-3.7824176E-3 -5.8895918E-3
-2.798501E-3 3.1487227E-3
7.991296E-3 1.6844708E-3
9.657623E-3 -1.5267209E-4
-1.200985E-2 1.5986447E-4
9.823116E-3 1.1957526E-3
8.143246E-3 -1.8274469E-3
-6.262192E-3 -1.2596527E-3
-9.739217E-3 -1.0089164E-3
-8.7537635E-3 1.8393736E-3
1.14593785E-2 1.0343567E-4
9.640991E-3 1.1524861E-3
-7.5099533E-3 -7.640538E-4
1.2020259E-2 -2.1008597E-4
-8.2267765E-3 2.9057565E-3
-7.847696E-3 2.7126563E-3
-6.7459657E-3 -1.079253E-3
8.983795E-3 -1.2435706E-4
-1.1923246E-2 1.4321151E-4
1.1044381E-2 5.28457E-4
-1.1759295E-2 -4.1393538E-5
-7.1070483E-3 -3.0808435E-3
-8.878863E-3 2.2688713E-3
2.8183023E-3 -2.526456E-4
9.549392E-3 -1.5964806E-3
8.06139E-3 1.3358182E-3
6.092896E-3 1.5759026E-3
-9.339293E-3 1.5892086E-4
-7.469491E-3 -8.341356E-4
2.3638E-5 -1.1592597E-2
1.0102795E-2 -4.377799E-4
-1.92447E-3 3.680917E-3
9.790344E-3 -7.3134166E-4
1.1518973E-2 -4.2134445E-4
1.20207425E-2 -1.6890872E-4
7.019856E-3 1.7118646E-3
-1.1817514E-2 1.96011E-4
1.0680793E-2 -1.1895604E-3
-1.1787905E-2 2.0896998E-7
-8.669188E-3 1.7181755E-3
-4.4443053E-3 5.330793E-3
-1.1818726E-2 2.8755772E-4
-7.530104E-3 -3.3688217E-3
1.325674E-3 -5.349355E-4
8.055238E-3 1.1945624E-3
-1.1072916E-2 4.8395575E-4
-5.4806345E-3 -2.6250118E-3
-1.1746098E-2 3.9463694E-4
-9.780502E-3 2.130932E-3
7.6672337E-3 2.522315E-3
-1.1371283E-2 -3.9660264E-4
1.155785E-2 -6.5439433E-4
5.86598E-3 -1.08415166E-4
-1.2038347E-2 2.1327216E-4
2.6042694E-3 -8.007243E-3
4.7499365E-3 2.3093766E-3
5.630159E-4 -9.458477E-3
1.0688073E-2 0
1.1990124E-2 -1.7076262E-4
-1.0595101E-2 -6.0463836E-4
-1.0649739E-2 -6.5303524E-4
-7.996694E-3 -1.9734653E-5
1.1140601E-2 2.0577118E-4
-8.893587E-3 9.959879E-4
1.5282506E-3 2.1190506E-4
-8.702722E-3 -2.6907066E-3
-8.148584E-3 -1.0012045E-3
-1.8450062E-3 -7.9044765E-3
8.53654E-3 1.7102543E-3
-8.041839E-3 -2.425196E-3
2.1596795E-3 -3.4329547E-3
1.1660749E-2 -4.4946556E-4
-9.522178E-3 -8.51316E-4
-4.9437196E-3 -5.2468027E-3
-9.877858E-3 1.5622497E-3
2.3351744E-4 1.1965779E-2
1.1794489E-3 8.903928E-3
-9.914181E-3 8.2437844E-5
1.0290774E-2 -1.1654053E-3
-6.7325775E-4 9.813243E-3
4.9062056E-4 1.4688817E-3
-8.211643E-3 3.3169466E-3
-6.735013E-5 1.0594732E-2
-1.1438517E-2 7.3837425E-4
-9.050387E-3 2.0461418E-3
1.0294912E-3 -2.221994E-3
1.0139897E-2 9.454147E-4
6.3116127E-4 -1.1165868E-2
-2.425365E-4 1.003311E-2
-2.5068468E-4 1.1361194E-2
1.0916631E-2 -1.7299908E-3
-4.9034073E-3 -3.5803101E-4
-3.230875E-4 -1.2363682E-2
7.607983E-3 1.0801308E-4
4.1959058E-5 -1.3427697E-2
7.323009E-4 -6.7554E-3
8.027431E-3 2.6098262E-3
1.1575991E-2 4.1940802E-4
-1.3523332E-2 1.5389785E-5
1.1721776E-2 8.342098E-4
-1.0413686E-2 -2.1272472E-3
-8.66444E-3 -1.4556596E-3
-1.0432347E-2 -1.0239086E-3
-1.2858478E-2 -1.2045046E-5
-1.1735851E-2 -2.0477513E-4
8.801703E-3 -1.5026035E-3
-1.0565337E-3 -6.2261173E-3
-1.291707E-2 3.36488E-4
5.556599E-3 4.623271E-3
-6.067635E-3 1.9152567E-3
1.3310587E-2 2.0003183E-4
1.3274289E-2 -6.701634E-5
1.2895154E-2 3.895668E-4
-1.3002887E-2 -4.11209E-4
-2.777483E-3 6.7993565E-3
-1.5691646E-3 4.452319E-3
8.541662E-3 2.600234E-3
1.3356846E-2 -1.3807956E-4
1.2159162E-3 -1.1258086E-2
1.2554532E-2 -8.774572E-4
1.3519252E-2 -3.0291296E-5
-4.149105E-3 -6.667511E-3
-3.1897293E-3 3.487598E-3
8.9379065E-3 2.0173544E-3
1.0836583E-2 -1.697129E-5
-1.347548E-2 -1.2541044E-5
1.1000692E-2 1.4983659E-3
9.164477E-3 -1.9199682E-3
-7.004945E-3 -1.5131581E-3
-1.0909558E-2 -1.2874287E-3
-9.8495595E-3 1.9235935E-3
1.285374E-2 2.991218E-4
1.079707E-2 1.4469187E-3
-8.41263E-3 -9.771192E-4
1.3487958E-2 -4.3632037E-5
-9.275411E-3 3.128306E-3
-8.847065E-3 2.9177377E-3
-7.5505357E-3 -1.3185105E-3
1.0080214E-2 4.026941E-6
-1.33780595E-2 -2.9838799E-5
1.2381397E-2 7.6929E-4
-1.3191185E-2 -2.3431389E-4
-7.923627E-3 -3.5697096E-3
-9.9967625E-3 2.4034146E-3
3.1656725E-3 -2.3839592E-4
1.0738234E-2 -1.638399E-3
9.022109E-3 1.6273475E-3
6.8099727E-3 1.8652296E-3
-1.0479572E-2 2.9068375E-5
-8.366119E-3 -1.0550919E-3
2.117317E-4 -1.3004463E-2
1.1340542E-2 -3.2969975E-4
-2.2177245E-3 4.09859E-3
1.09947175E-2 -6.6401635E-4
1.29289795E-2 -2.8863552E-4
1.3487843E-2 2.5694362E-6
7.847685E-3 2.0325645E-3
-1.326029E-2 3.108164E-5
1.2000963E-2 -1.1638303E-3
-1.3223946E-2 -1.8809982E-4
-9.752745E-3 1.7889814E-3
-5.070893E-3 5.9092E-3
-1.3263112E-2 1.3376192E-4
-8.39362E-3 -3.8995293E-3
1.4957183E-3 -5.789227E-4
9.017464E-3 1.4687853E-3
-1.2429583E-2 3.6600156E-4
-6.1063617E-3 -3.032362E-3
-1.3183347E-2 2.5504624E-4
-1.1006037E-2 2.2342654E-3
8.560981E-3 2.9520895E-3
-1.2750229E-2 -6.2659604E-4
1.2976315E-2 -5.4945564E-4
6.5823225E-3 -2.7902168E-5
-1.35083E-2 4.691742E-5
3.0494605E-3 -8.941101E-3
5.291691E-3 2.666601E-3
7.8272144E-4 -1.0601741E-2
1.1990124E-2 1.7076262E-4
1.3453525E-2 0
-1.1876167E-2 -8.475741E-4
-1.1936689E-2 -9.027397E-4
-8.970559E-3 -1.499014E-4
1.2494494E-2 4.0883146E-4
-9.992942E-3 9.7522995E-4
1.7110411E-3 2.6213672E-4
-9.719924E-3 -3.1575393E-3
-9.125272E-3 -1.2533637E-3
-1.9434809E-3 -8.8969E-3
9.549162E-3 2.0549905E-3
-8.982773E-3 -2.8491246E-3
2.4776263E-3 -3.8166621E-3
1.3088478E-2 -3.1791773E-4
-1.0668595E-2 -1.1071612E-3
-5.46215E-3 -5.964969E-3
-1.1106168E-2 1.5947499E-3
7.0788374E-5 1.3427216E-2
1.1808755E-3 1.0007475E-2
-1.11232735E-2 -6.5917426E-5
1.1563045E-2 -1.1429633E-3
-9.1206125E-4 1.0997964E-2
5.269211E-4 1.6556638E-3
-9.265005E-3 3.5898301E-3
-2.4482622E-4 1.1884337E-2
-1.2843789E-2 6.455733E-4
-1.0185623E-2 2.1508113E-3
1.1904074E-3 -2.4762359E-3
1.1360063E-2 1.2225923E-3
8.864474E-4 -1.2516043E-2
-4.3238164E-4 1.1251498E-2
-4.6274124E-4 1.2741242E-2
-9.527721E-3 2.2149074E-3
4.351064E-3 7.138317E-6
1.064121E-3 1.0893748E-2
-6.7227907E-3 3.8395508E-4
8.089073E-4 1.1856011E-2
-2.2085097E-4 6.009499E-3
-7.2506745E-3 -1.7981078E-3
-1.0245188E-2 3.5905515E-4
1.1936819E-2 -8.655573E-4
-1.0400013E-2 2.070185E-6
9.326751E-3 1.2217747E-3
7.7402852E-3 7.3912967E-4
9.273713E-3 2.4662077E-4
1.1351646E-2 -7.9945364E-4
1.0372782E-2 -5.5859383E-4
-7.6750834E-3 1.8809391E-3
1.3249066E-3 5.4295748E-3
1.138141E-2 -1.110814E-3
-5.1963823E-3 -3.7311492E-3
5.235574E-3 -2.0729643E-3
-1.176259E-2 6.619896E-4
-1.1713724E-2 8.954412E-4
-1.1407805E-2 4.685046E-4
1.1504271E-2 -4.5618715E-4
2.0234769E-3 -6.1771483E-3
1.1046911E-3 -4.0291646E-3
-7.7040107E-3 -1.757244E-3
-1.1782124E-2 9.633735E-4
-3.640952E-4 1.0014736E-2
-1.1027297E-2 1.5655173E-3
-1.193228E-2 8.784549E-4
4.0826974E-3 5.6243846E-3
2.5960305E-3 -3.2796483E-3
-8.017075E-3 -1.2177402E-3
-9.564979E-3 6.9768814E-4
1.1896338E-2 -8.3788665E-4
-9.805313E-3 -6.2964484E-4
-7.96903E-3 2.2722252E-3
6.27898E-3 8.944354E-4
9.711576E-3 4.4918014E-4
8.573563E-3 -2.3185858E-3
-1.136555E-2 5.4573605E-4
-9.622326E-3 -5.970581E-4
7.487851E-3 3.3255987E-4
-1.1903814E-2 8.882598E-4
7.990833E-3 -3.3458802E-3
7.6259747E-3 -3.1330145E-3
6.7483396E-3 6.8823714E-4
-8.898614E-3 6.314999E-4
1.1811431E-2 -8.1647944E-4
-1.0978206E-2 1.00935344E-4
1.1659348E-2 -6.242051E-4
7.219515E-3 2.6519895E-3
8.673277E-3 -2.7514242E-3
-2.7794945E-3 4.0988313E-4
-9.376011E-3 2.1228155E-3
-8.066836E-3 -8.681552E-4
-6.1290474E-3 -1.2175115E-3
9.249065E-3 -6.8587484E-4
7.451705E-3 4.0432112E-4
6.3237565E-4 1.1493095E-2
-9.99015E-3 1.0055001E-3
1.6994955E-3 -3.757768E-3
-9.66381E-3 1.2788328E-3
-1.1394938E-2 1.0693226E-3
-1.1906624E-2 8.474684E-4
-7.055636E-3 -1.2998513E-3
1.170363E-2 -8.6283823E-4
-1.05205905E-2 1.7834397E-3
1.1685356E-2 -6.670643E-4
8.49658E-3 -2.1936572E-3
4.1040764E-3 -5.535843E-3
1.1699652E-2 -9.5365685E-4
7.6551815E-3 2.91353E-3
-1.2838806E-3 6.052775E-4
-8.052747E-3 -7.2847586E-4
1.0949219E-2 -1.1061553E-3
5.5814614E-3 2.2921313E-3
1.1621598E-2 -1.0556964E-3
9.574876E-3 -2.6656913E-3
-7.7432306E-3 -2.066629E-3
1.12948045E-2 -2.5013543E-4
-1.1420292E-2 1.3025444E-3
-5.8088205E-3 4.393181E-4
1.1921566E-2 -8.9244166E-4
-2.128636E-3 8.084918E-3
-4.8392634E-3 -2.0205784E-3
-2.3039956E-5 9.408053E-3
-1.0595101E-2 6.0463836E-4
-1.1876167E-2 8.475741E-4
1.0537145E-2 0
1.0594046E-2 4.4884637E-5
7.928251E-3 -4.328199E-4
-1.10553345E-2 4.262573E-4
8.759881E-3 -1.4904463E-3
-1.5269448E-3 -1.2360666E-4
8.779239E-3 2.1749774E-3
8.134343E-3 5.315196E-4
2.276124E-3 7.731344E-3
-8.559036E-3 -1.2124544E-3
8.109084E-3 1.9491629E-3
-1.9466869E-3 3.5252685E-3
-1.1533891E-2 1.1052195E-3
9.487509E-3 3.052287E-4
5.1975343E-3 4.9214903E-3
9.703557E-3 -2.1074638E-3
-9.084055E-4 -1.1848483E-2
-1.6728961E-3 -8.759754E-3
9.8232785E-3 -6.42579E-4
-1.013533E-2 1.7374305E-3
1.1225306E-4 -9.765969E-3
-5.6944933E-4 -1.4283496E-3
7.95257E-3 -3.7526372E-3
-5.3259375E-4 -1.0506382E-2
1.1297248E-2 -1.3790437E-3
8.855908E-3 -2.540335E-3
-8.9483504E-4 2.2609055E-3
-1.0105177E-2 -3.6356386E-4
5.9967065E-6 1.1104447E-2
-3.2715916E-4 -9.959558E-3
-3.9421293E-4 -1.1276549E-2
-9.569737E-3 2.2674536E-3
4.3745907E-3 -1.1357152E-5
1.1162709E-3 1.0948042E-2
-6.7574587E-3 4.1466556E-4
8.6377823E-4 1.1916588E-2
-1.9644499E-4 6.0428916E-3
-7.2974875E-3 -1.776932E-3
-1.0298983E-2 4.0463498E-4
1.1997593E-2 -9.2107867E-4
-1.0456164E-2 4.6382796E-5
9.382321E-3 1.1886432E-3
7.7852327E-3 7.101499E-4
9.324842E-3 2.0844958E-4
1.1409541E-2 -8.5212506E-4
1.0426416E-2 -6.057954E-4
-7.708517E-3 1.9237897E-3
1.3551894E-3 5.4532513E-3
1.1438138E-2 -1.1652934E-3
-5.240337E-3 -3.7291627E-3
5.255016E-3 -2.1064603E-3
-1.1823289E-2 7.156697E-4
-1.1773163E-2 9.501739E-4
-1.1467412E-2 5.196282E-4
1.1564452E-2 -5.0765515E-4
2.008091E-3 -6.219125E-3
1.0934935E-3 -4.055628E-3
-7.7530984E-3 -1.7339166E-3
-1.1841645E-2 1.018764E-3
-3.2340136E-4 1.0070367E-2
-1.1080177E-2 1.6209439E-3
-1.1992973E-2 9.3402585E-4
4.128703E-3 5.637366E-3
2.596079E-3 -3.3084168E-3
-8.065555E-3 -1.1901658E-3
-9.613658E-3 7.4219913E-4
1.195701E-2 -8.93086E-4
-9.860945E-3 -5.912773E-4
-8.002384E-3 2.3184407E-3
6.316697E-3 8.72519E-4
9.765933E-3 4.1023732E-4
8.609984E-3 -2.3676269E-3
-1.1424599E-2 5.9709675E-4
-9.67683E-3 -5.592939E-4
7.529702E-3 3.0245964E-4
-1.1964312E-2 9.437633E-4
8.019731E-3 -3.3979868E-3
7.653809E-3 -3.1824172E-3
6.787713E-3 6.632079E-4
-8.943977E-3 6.728154E-4
1.1871734E-2 -8.712015E-4
-1.1037059E-2 1.4824387E-4
1.171965E-2 -6.772412E-4
7.269797E-3 2.6355574E-3
8.708393E-3 -2.8032276E-3
-2.7927582E-3 4.2393626E-4
-9.4176E-3 2.1742175E-3
-8.114096E-3 -8.3848066E-4
-6.1673312E-3 -1.1979782E-3
9.2960885E-3 -7.2897633E-4
7.4936673E-3 3.7476246E-4
6.847475E-4 1.1552465E-2
-1.0039814E-2 1.0534847E-3
1.6926662E-3 -3.7852991E-3
-9.710547E-3 1.3269029E-3
-1.1451917E-2 1.1236356E-3
-1.1967311E-2 9.0276287E-4
-7.0992736E-3 -1.2768159E-3
1.1763155E-2 -9.1735093E-4
-1.0569805E-2 1.8378849E-3
1.1745616E-2 -7.204427E-4
8.533117E-3 -2.2416958E-3
4.102658E-3 -5.583219E-3
1.1758769E-2 -1.0086435E-3
7.708931E-3 2.8966547E-3
-1.2882353E-3 6.14015E-4
-8.099334E-3 -6.981077E-4
1.1003634E-2 -1.158769E-3
5.6213653E-3 2.280734E-3
1.1679859E-2 -1.1109015E-3
9.615226E-3 -2.7208724E-3
-7.7938484E-3 -2.0448053E-3
1.1354732E-2 -2.995987E-4
-1.1476415E-2 1.3582256E-3
-5.8383173E-3 4.664342E-4
1.1982142E-2 -9.4804313E-4
-2.1056915E-3 8.137645E-3
-4.8740027E-3 -2.0108758E-3
1.6911119E-5 9.458955E-3
-1.0649739E-2 6.5303524E-4
-1.1936689E-2 9.027397E-4
1.0594046E-2 -4.4884637E-5
1.0651445E-2 0
7.969219E-3 -4.6892904E-4
-1.1113218E-2 4.7565144E-4
8.800836E-3 -1.535809E-3
-1.535717E-3 -1.1776983E-4
8.835911E-3 2.1493253E-3
8.180533E-3 4.997399E-4
2.321348E-3 7.763398E-3
-8.61042E-3 -1.1825432E-3
8.161176E-3 1.9251467E-3
-1.9421824E-3 3.5525977E-3
-1.1591467E-2 1.1603184E-3
9.540041E-3 2.6646315E-4
5.2465657E-3 4.9259267E-3
9.746979E-3 -2.1601783E-3
-9.637817E-4 -1.1908595E-2
-1.7192436E-3 -8.799931E-3
9.873588E-3 -6.8789296E-4
-1.018266E-2 1.789986E-3
7.125957E-5 -9.8191835E-3
-5.786088E-4 -1.4336371E-3
7.97953E-3 -3.806777E-3
-5.8022345E-4 -1.056085E-2
1.1352379E-2 -1.434613E-3
8.89291E-3 -2.5917764E-3
-8.9003646E-4 2.2769263E-3
-1.0161295E-2 -3.2248255E-4
5.3330437E-5 1.1164386E-2
-3.7135062E-4 -1.0011946E-2
-4.443763E-4 -1.1335763E-2
-7.2597293E-3 1.2751608E-3
3.2734894E-3 1.840938E-4
3.5318692E-4 8.240271E-3
-5.0740642E-3 1.2748592E-5
1.2163638E-4 8.953806E-3
-4.1301432E-4 4.512534E-3
-5.3816196E-3 -1.6507403E-3
-7.7233277E-3 -1.5067101E-4
9.016933E-3 -1.6094102E-4
-7.825156E-3 -4.2562955E-4
6.967353E-3 1.3023776E-3
5.7935063E-3 8.7406574E-4
6.967502E-3 5.664839E-4
8.573928E-3 -1.3524016E-4
7.827528E-3 5.777166E-6
-5.8520683E-3 1.0999781E-3
7.738495E-4 4.1396865E-3
8.609111E-3 -3.6828843E-4
-3.7565497E-3 -3.0207979E-3
4.0244455E-3 -1.344664E-3
-8.8774795E-3 1.4931596E-5
-8.850302E-3 1.9258983E-4
-8.602588E-3 -1.16075506E-4
8.674664E-3 1.2930566E-4
1.7762141E-3 -4.5646313E-3
9.96681E-4 -2.986207E-3
-5.724393E-3 -1.6386147E-3
-8.904557E-3 2.408936E-4
-6.8531034E-4 7.5202296E-3
-8.361351E-3 7.249571E-4
-9.014048E-3 1.7083173E-4
2.8408365E-3 4.3995418E-3
2.0879924E-3 -2.3610056E-3
-5.9821066E-3 -1.2455464E-3
-7.2254417E-3 1.3205968E-4
8.985338E-3 -1.417841E-4
-7.351751E-3 -8.765105E-4
-6.089309E-3 1.3823112E-3
4.687627E-3 9.3089516E-4
7.2886343E-3 7.368769E-4
6.5460694E-3 -1.3923618E-3
-8.573966E-3 -5.6229997E-5
-7.215407E-3 -8.444755E-4
5.6202724E-3 5.5778987E-4
-8.993031E-3 1.7937836E-4
6.149815E-3 -2.1892444E-3
5.8665476E-3 -2.0440686E-3
5.0492473E-3 7.950287E-4
-6.721344E-3 1.0963037E-4
8.920572E-3 -1.29165E-4
-8.264255E-3 -3.7499215E-4
8.798246E-3 9.257288E-6
5.3231013E-3 2.2919292E-3
6.6388748E-3 -1.7139378E-3
-2.108155E-3 1.9423048E-4
-7.1417987E-3 1.2121011E-3
-6.0339062E-3 -9.845588E-4
-4.5615453E-3 -1.1678222E-3
6.9872597E-3 -1.361476E-4
5.5901282E-3 6.102988E-4
3.7191776E-6 8.673492E-3
-7.5579877E-3 3.4619618E-4
1.4330697E-3 -2.7575733E-3
-7.323674E-3 5.6525914E-4
-8.6175855E-3 3.3651403E-4
-8.99347E-3 1.4857115E-4
-5.2553373E-3 -1.2678358E-3
8.841367E-3 -1.684737E-4
-7.989051E-3 9.0973737E-4
8.819576E-3 -2.1922333E-5
6.483015E-3 -1.3015266E-3
3.3153354E-3 -3.9966446E-3
8.842105E-3 -2.3696992E-4
5.640158E-3 2.50661E-3
-9.908665E-4 4.0268045E-4
-6.0290424E-3 -8.788844E-4
8.283735E-3 -3.825358E-4
4.105395E-3 1.9538843E-3
8.787568E-3 -3.1695134E-4
7.3137255E-3 -1.6123981E-3
-5.741195E-3 -1.8730103E-3
8.508596E-3 2.757371E-4
-8.646242E-3 5.109515E-4
-4.388659E-3 9.194598E-5
9.00656E-3 -1.8179575E-4
-1.9336998E-3 5.9957365E-3
-3.5581123E-3 -1.7190787E-3
-4.0377735E-4 7.0777643E-3
-7.996694E-3 1.9734653E-5
-8.970559E-3 1.499014E-4
7.928251E-3 4.328199E-4
7.969219E-3 4.6892904E-4
5.9830714E-3 0
-8.335651E-3 -1.3338505E-4
6.652241E-3 -7.6160877E-4
-1.143811E-3 -1.5572313E-4
6.516246E-3 1.997087E-3
6.098526E-3 7.34044E-4
1.3950075E-3 5.910632E-3
-6.3900994E-3 -1.2638307E-3
6.021291E-3 1.7996553E-3
-1.609509E-3 2.5724852E-3
-8.72361E-3 3.5781597E-4
7.1259565E-3 6.193624E-4
3.7085223E-3 3.9164694E-3
7.387616E-3 -1.1870962E-3
-1.9680907E-4 -8.952227E-3
-8.9889084E-4 -6.6596395E-3
7.417525E-3 -7.998509E-5
-7.697288E-3 8.909443E-4
4.8560393E-4 -7.3433993E-3
-3.6978888E-4 -1.0980947E-3
6.1377333E-3 -2.496864E-3
3.082795E-5 -7.926982E-3
8.556805E-3 -5.7356403E-4
6.767618E-3 -1.5476109E-3
-7.661508E-4 1.6643715E-3
-7.5883E-3 -6.886256E-4
-4.5161054E-4 8.35534E-3
1.6293763E-4 -7.5071063E-3
1.66582E-4 -8.500778E-3
1.00858705E-2 -1.9384079E-3
-4.5647495E-3 -1.8350207E-4
-6.7576906E-4 -1.1472522E-2
7.068933E-3 -1.3088147E-4
-3.690784E-4 -1.2471784E-2
4.7481293E-4 -6.296097E-3
7.534506E-3 2.1798448E-3
1.07635455E-2 3.773453E-5
-1.2558857E-2 4.2524535E-4
1.0911543E-2 4.1853718E-4
-9.735994E-3 -1.6591516E-3
-8.091033E-3 -1.0885949E-3
-9.719796E-3 -6.338966E-4
-1.1942232E-2 3.7956267E-4
-1.09054865E-2 1.6645597E-4
8.128614E-3 -1.6629607E-3
-1.1704207E-3 -5.7501844E-3
-1.1986055E-2 7.05031E-4
5.300992E-3 4.1248463E-3
-5.5769035E-3 1.9631141E-3
1.2367825E-2 -2.1871513E-4
1.2325998E-2 -4.656237E-4
1.1987764E-2 -3.0066876E-5
-1.2088478E-2 1.3241134E-5
-2.3728695E-3 6.3990704E-3
-1.3220083E-3 4.182621E-3
8.01179E-3 2.1553098E-3
1.2400511E-2 -5.341297E-4
7.8712485E-4 -1.0492507E-2
1.1632922E-2 -1.1964202E-3
1.2554615E-2 -4.3896053E-4
-4.0559527E-3 -6.066135E-3
-2.856368E-3 3.3359164E-3
8.362075E-3 1.6019389E-3
1.0063584E-2 -3.4506837E-4
-1.25152655E-2 3.978516E-4
1.0262044E-2 1.0572616E-3
8.452845E-3 -2.0615975E-3
-6.551583E-3 -1.1924237E-3
-1.0170996E-2 -8.641307E-4
-9.088983E-3 2.0857833E-3
1.1946556E-2 -1.12805574E-4
1.0071375E-2 1.0156697E-3
-7.842633E-3 -6.518192E-4
1.2525147E-2 -4.503994E-4
-8.519153E-3 3.1871707E-3
-8.12774E-3 2.9785961E-3
-7.0523657E-3 -9.950722E-4
9.361772E-3 -3.025816E-4
-1.2425316E-2 3.7882637E-4
1.152217E-2 3.3820042E-4
-1.2257977E-2 1.8324837E-4
-7.467272E-3 -3.0744576E-3
-9.21111E-3 2.5358743E-3
2.9327641E-3 -3.1760175E-4
9.922974E-3 -1.847924E-3
8.428425E-3 1.2371751E-3
6.381207E-3 1.5253229E-3
-9.731656E-3 3.454534E-4
-7.801806E-3 -7.2564743E-4
-1.9854627E-4 -1.2083878E-2
1.0522116E-2 -6.508183E-4
-1.9350849E-3 3.8738162E-3
1.0190784E-2 -9.5079426E-4
1.19985705E-2 -6.609517E-4
1.2526445E-2 -4.074882E-4
7.3500318E-3 1.6491956E-3
-1.231409E-2 4.3182547E-4
1.1110112E-2 -1.4455571E-3
-1.2286997E-2 2.2716296E-4
-9.00316E-3 1.9578252E-3
-4.529845E-3 5.6420607E-3
-1.231359E-2 5.272715E-4
-7.913784E-3 -3.3664838E-3
1.3715038E-3 -5.8310694E-4
8.419291E-3 1.090057E-3
-1.1532422E-2 7.176265E-4
-5.76322E-3 -2.6306387E-3
-1.2235826E-2 6.3748646E-4
-1.01535795E-2 2.4094526E-3
8.0404235E-3 2.4814962E-3
-1.1860374E-2 -1.9446973E-4
1.2034605E-2 -9.046176E-4
6.112256E-3 -2.2593964E-4
-1.2543941E-2 4.54069E-4
2.5603746E-3 -8.396406E-3
4.995508E-3 2.315707E-3
4.0475532E-4 -9.869785E-3
1.1140601E-2 -2.0577118E-4
1.2494494E-2 -4.0883146E-4
-1.10553345E-2 -4.262573E-4
-1.1113218E-2 -4.7565144E-4
-8.335651E-3 1.3338505E-4
1.1616252E-2 0
-9.250963E-3 1.2093808E-3
1.5970359E-3 1.9145456E-4
-9.122996E-3 -2.637082E-3
-8.512868E-3 -8.867153E-4
-2.075303E-3 -8.203628E-3
8.9309E-3 1.6183171E-3
-8.42902E-3 -2.3730532E-3
2.185027E-3 -3.619884E-3
1.2145808E-2 -6.929932E-4
-9.9417325E-3 -7.040353E-4
-5.2540484E-3 -5.373772E-3
-1.0266007E-2 1.8185673E-3
4.7377436E-4 1.246791E-2
1.4008082E-3 9.258211E-3
-1.0332357E-2 2.7680025E-4
1.0704045E-2 -1.4128704E-3
-5.128343E-4 1.0241693E-2
5.3967274E-4 1.5216281E-3
-8.495463E-3 3.615479E-3
1.337725E-4 1.1044606E-2
-1.1908606E-2 9.898558E-4
-9.394185E-3 2.3070164E-3
1.0303009E-3 -2.3358925E-3
1.05874175E-2 7.9022563E-4
4.429147E-4 -1.1650778E-2
-5.964426E-5 1.0462578E-2
-4.2568892E-5 1.1847048E-2
-8.234006E-3 4.936603E-4
3.6161758E-3 6.2137883E-4
-6.56247E-4 9.206855E-3
-5.6431904E-3 -6.3172297E-4
-1.0045244E-3 9.970717E-3
-1.0336257E-3 4.9646595E-3
-5.773392E-3 -2.520413E-3
-8.567956E-3 -1.1506553E-3
1.0045908E-2 9.688592E-4
-8.646172E-3 -1.4693281E-3
7.580825E-3 2.334942E-3
6.330211E-3 1.7093029E-3
7.6746657E-3 1.516762E-3
9.550084E-3 9.410426E-4
8.702253E-3 1.0028196E-3
-6.646607E-3 4.7807128E-4
3.334429E-4 4.701192E-3
9.618868E-3 6.8640825E-4
-3.7921676E-3 -3.8368416E-3
4.6457225E-3 -9.827693E-4
-9.872273E-3 -1.1134474E-3
-9.864668E-3 -9.124593E-4
-9.549959E-3 -1.2241153E-3
9.628412E-3 1.248E-3
2.5559224E-3 -4.8490562E-3
1.4882796E-3 -3.1933244E-3
-6.1560455E-3 -2.550564E-3
-9.9311415E-3 -8.6566014E-4
-1.7192379E-3 8.274086E-3
-9.388799E-3 -2.5831006E-4
-1.0043959E-2 -9.574951E-4
2.5985318E-3 5.2532246E-3
2.6220633E-3 -2.359281E-3
-6.4926185E-3 -2.1463388E-3
-8.050374E-3 -7.7292504E-4
1.0008342E-2 9.861366E-4
-8.062424E-3 -1.9103759E-3
-6.9463216E-3 7.6178234E-4
5.0934115E-3 1.6317164E-3
8.010023E-3 1.7470906E-3
7.455447E-3 -7.148141E-4
-9.5257545E-3 -1.153933E-3
-7.91491E-3 -1.857402E-3
6.177862E-3 1.3356013E-3
-1.0021681E-2 -9.4531715E-4
7.1163117E-3 -1.651264E-3
6.782883E-3 -1.5259095E-3
5.512772E-3 1.5266862E-3
-7.4870395E-3 -7.336942E-4
9.934727E-3 9.919232E-4
-9.140828E-3 -1.4689224E-3
9.781099E-3 1.1302555E-3
5.6267087E-3 3.2258658E-3
7.5995666E-3 -1.0605431E-3
-2.3686637E-3 -5.2401356E-5
-8.094857E-3 4.385601E-4
-6.583434E-3 -1.8627553E-3
-4.92307E-3 -1.8790925E-3
7.786072E-3 7.380608E-4
6.137663E-3 1.3901463E-3
-1.0999473E-3 9.644043E-3
-8.447371E-3 -5.7716935E-4
1.9443721E-3 -2.8835703E-3
-8.214736E-3 -3.0377932E-4
-9.6242465E-3 -7.2281493E-4
-1.0018247E-2 -9.796261E-4
-5.681727E-3 -2.078608E-3
9.851666E-3 9.3813613E-4
-8.998381E-3 -5.471842E-6
9.8087825E-3 1.0983043E-3
7.373777E-3 -6.218459E-4
4.194884E-3 -4.021623E-3
9.861206E-3 8.620723E-4
5.951899E-3 3.5049168E-3
-1.1529477E-3 3.215866E-4
-6.5914774E-3 -1.7446424E-3
9.258915E-3 6.2914885E-4
4.3158405E-3 2.6950063E-3
9.81075E-3 7.6620304E-4
8.33697E-3 -8.617422E-4
-6.144889E-3 -2.813314E-3
9.425132E-3 1.3896687E-3
-9.6783135E-3 -5.3251564E-4
-4.891208E-3 -4.564197E-4
1.003703E-2 9.443516E-4
-2.9131928E-3 6.420175E-3
-3.7372373E-3 -2.3642732E-3
-1.3498934E-3 7.817971E-3
-8.893587E-3 -9.959879E-4
-9.992942E-3 -9.7522995E-4
8.759881E-3 1.4904463E-3
8.800836E-3 1.535809E-3
6.652241E-3 7.6160877E-4
-9.250963E-3 -1.2093808E-3
7.493202E-3 0
-1.2519168E-3 -3.1874E-4
6.9908313E-3 3.0499275E-3
6.6871694E-3 1.5924474E-3
7.986436E-4 6.7492765E-3
-6.9439155E-3 -2.218603E-3
6.46565E-3 2.7674092E-3
-2.1169842E-3 2.6553213E-3
-9.74484E-3 -7.126267E-4
7.84411E-3 1.5957252E-3
3.6247554E-3 4.826575E-3
8.364986E-3 -3.7946753E-4
9.2074287E-4 -9.978533E-3
-1.5169472E-4 -7.5189034E-3
8.257311E-3 8.552747E-4
-8.671594E-3 1.0773338E-5
1.4746856E-3 -8.102899E-3
-2.7136673E-4 -1.2679817E-3
7.1420376E-3 -1.9948268E-3
1.0433322E-3 -8.809642E-3
9.586843E-3 4.515154E-4
7.7215363E-3 -8.5922517E-4
-1.0637045E-3 1.7529951E-3
-8.349347E-3 -1.7315886E-3
-1.5657042E-3 9.232347E-3
1.1367699E-3 -8.32599E-3
1.2673102E-3 -9.430333E-3
1.3546866E-3 -4.3272934E-4
-6.3059945E-4 5.0006E-5
-2.8199234E-4 -1.5661379E-3
9.697003E-4 -1.3450134E-4
-2.5629706E-4 -1.7085739E-3
-3.8491205E-5 -8.734314E-4
1.071793E-3 1.7551053E-4
1.4804254E-3 -1.7221275E-4
-1.7196194E-3 2.6545417E-4
1.5070487E-3 -1.2229811E-4
-1.365878E-3 -6.76401E-5
-1.1303205E-3 -1.6309872E-5
-1.3467531E-3 7.3047966E-5
-1.6355969E-3 2.490106E-4
-1.4965745E-3 2.026249E-4
1.0901372E-3 -3.626013E-4
-2.5568515E-4 -7.712616E-4
-1.6362576E-3 2.944792E-4
7.967799E-4 4.7972688E-4
-7.343735E-4 3.61811E-4
1.6967596E-3 -2.339113E-4
1.6869397E-3 -2.671676E-4
1.647617E-3 -2.0171127E-4
-1.6617406E-3 2.0105804E-4
-2.2076197E-4 9.188714E-4
-1.12817186E-4 5.968277E-4
1.137007E-3 1.6427103E-4
1.6960549E-3 -2.778142E-4
-6.471727E-5 -1.4555133E-3
1.5796088E-3 -3.5621662E-4
1.7188102E-3 -2.6726985E-4
-6.576038E-4 -7.671411E-4
-3.3772047E-4 5.0570903E-4
1.1760448E-3 8.241874E-5
1.3778835E-3 -2.1330509E-4
-1.7140777E-3 2.6096957E-4
1.428281E-3 -2.3779634E-5
1.1281432E-3 -4.2275095E-4
-9.2038367E-4 -5.5957225E-5
-1.4125804E-3 4.8831283E-5
-1.2152026E-3 4.3656063E-4
1.6405878E-3 -2.1240737E-4
1.4013817E-3 -2.6355321E-5
-1.0889708E-3 3.964524E-5
1.7145702E-3 -2.6835687E-4
-1.118708E-3 5.785909E-4
-1.0683332E-3 5.434643E-4
-9.8598E-4 -2.0571091E-5
1.2820965E-3 -1.9589691E-4
-1.7020247E-3 2.5687146E-4
1.5896754E-3 -1.4340722E-4
-1.6822418E-3 2.2722477E-4
-1.0772942E-3 -2.9961264E-4
-1.2245749E-3 5.004533E-4
3.9797032E-4 -9.200149E-5
1.3337823E-3 -4.176045E-4
1.1791547E-3 3.117637E-5
9.0244657E-4 1.0453322E-4
-1.3322426E-3 2.0788737E-4
-1.0845747E-3 2.8822305E-5
-2.2645846E-4 -1.6580543E-3
1.4358844E-3 -2.628979E-4
-2.0219432E-4 5.6447677E-4
1.3853878E-3 -2.9867853E-4
1.6387047E-3 -2.886254E-4
1.7154559E-3 -2.6247874E-4
1.0376851E-3 1.0559575E-4
-1.6858596E-3 2.623247E-4
1.5036253E-3 -3.8185192E-4
-1.685508E-3 2.3374065E-4
-1.2055123E-3 4.1755408E-4
-5.29786E-4 8.5034594E-4
-1.6842177E-3 2.7543868E-4
-1.1434951E-3 -3.3240198E-4
1.7894777E-4 -1.0277183E-4
1.1754745E-3 1.1100666E-5
-1.5736831E-3 2.887343E-4
-8.3570136E-4 -2.6668064E-4
-1.67171E-3 2.8930957E-4
-1.3562319E-3 4.9860595E-4
1.1463197E-3 2.0864415E-4
-1.6338038E-3 1.6874178E-4
1.6396429E-3 -3.227191E-4
8.3660684E-4 -1.3180265E-4
-1.7170933E-3 2.6917105E-4
2.1362143E-4 -1.1965613E-3
7.249635E-4 2.3603608E-4
-1.07023065E-4 -1.3635977E-3
1.5282506E-3 -2.1190506E-4
1.7110411E-3 -2.6213672E-4
-1.5269448E-3 1.2360666E-4
-1.535717E-3 1.1776983E-4
-1.143811E-3 1.5572313E-4
1.5970359E-3 -1.9145456E-4
-1.2519168E-3 3.1874E-4
2.227206E-4 0
-1.2977192E-3 -2.1219198E-4
-1.1849882E-3 1.839759E-5
-4.2052774E-4 -1.0936541E-3
1.2545185E-3 7.5295255E-5
-1.1979577E-3 -1.8733046E-4
2.4074233E-4 -5.336849E-4
1.6584193E-3 -2.9545723E-4
-1.3784219E-3 6.7062945E-5
-8.109102E-4 -6.5220654E-4
-1.3814273E-3 4.1922234E-4
2.706271E-4 1.7063157E-3
3.4517742E-4 1.249758E-3
-1.4159603E-3 2.0834916E-4
1.4483368E-3 -3.7066542E-4
9.829369E-5 1.4165101E-3
9.927465E-5 2.0030315E-4
-1.1083919E-3 6.370854E-4
2.0042436E-4 1.5162396E-3
-1.620915E-3 3.3236132E-4
-1.2535163E-3 4.7200656E-4
1.0314945E-4 -3.381263E-4
1.4686129E-3 -6.585517E-5
-1.311304E-4 -1.6090827E-3
1.6424013E-4 1.4394085E-3
1.8940597E-4 1.6294682E-3
-7.4810367E-3 3.8120174E-3
3.6266516E-3 -8.9215767E-4
3.1351782E-3 8.8567035E-3
-5.5219787E-3 1.7075547E-3
3.1211628E-3 9.711112E-3
1.0564172E-3 5.0525237E-3
-6.4121964E-3 -1.5152356E-6
-8.461876E-3 2.413868E-3
9.766746E-3 -3.185042E-3
-8.664556E-3 2.1483966E-3
8.022961E-3 -9.0719253E-4
6.601542E-3 -9.81855E-4
7.7774893E-3 -1.7087148E-3
9.292841E-3 -3.0091798E-3
8.526997E-3 -2.606455E-3
-6.0064076E-3 3.1513607E-3
2.2245946E-3 4.2502875E-3
9.2533715E-3 -3.2747397E-3
-5.0996207E-3 -2.0360956E-3
3.934244E-3 -2.8078102E-3
-9.663602E-3 2.9794727E-3
-9.5747E-3 3.163891E-3
-9.407942E-3 2.7450344E-3
9.490858E-3 -2.7546838E-3
4.1087298E-4 -5.564285E-3
8.873428E-5 -3.585001E-3
-6.7814686E-3 1.2610485E-4
-9.617669E-3 3.2346086E-3
1.7637934E-3 8.419136E-3
-8.864479E-3 3.5804925E-3
-9.760302E-3 3.1948502E-3
4.5625153E-3 3.8433599E-3
1.4859823E-3 -3.268354E-3
-6.9309454E-3 6.402232E-4
-7.825248E-3 2.5556053E-3
9.738729E-3 -3.1536315E-3
-8.299463E-3 1.4993179E-3
-6.17055E-3 3.538042E-3
5.416082E-3 -5.508302E-4
8.184114E-3 -1.6303274E-3
6.664659E-3 -3.7014503E-3
-9.356795E-3 2.8006597E-3
-8.140276E-3 1.4886983E-3
6.307301E-3 -1.2684921E-3
-9.734562E-3 3.197144E-3
5.967102E-3 -4.4370806E-3
5.7070497E-3 -4.184416E-3
5.7645775E-3 -8.195093E-4
-7.283714E-3 2.3629144E-3
9.672405E-3 -3.1182696E-3
-9.125884E-3 2.3501134E-3
9.585382E-3 -2.9266807E-3
6.5624854E-3 7.193761E-4
6.6583958E-3 -4.082661E-3
-2.2311886E-3 9.1521925E-4
-7.3736445E-3 3.7039742E-3
-6.9002463E-3 9.4175857E-4
-5.3578485E-3 2.5070523E-4
7.5644767E-3 -2.4805546E-3
6.291997E-3 -1.2012417E-3
2.8991725E-3 9.445179E-3
-8.115953E-3 2.8998246E-3
6.403269E-4 -3.4816551E-3
-7.787637E-3 3.0601975E-3
-9.273208E-3 3.2429628E-3
-9.745322E-3 3.1637375E-3
-6.146851E-3 3.7335942E-4
9.573021E-3 -3.1346434E-3
-8.397325E-3 3.6574693E-3
9.598205E-3 -2.9677583E-3
6.626305E-3 -3.5814734E-3
2.2767396E-3 -5.4594255E-3
9.550961E-3 -3.2094899E-3
6.979455E-3 8.473574E-4
-9.447558E-4 7.693058E-4
-6.859676E-3 1.0552264E-3
8.894244E-3 -3.1816496E-3
5.1234285E-3 7.5766427E-4
9.4648665E-3 -3.278395E-3
7.4272775E-3 -4.19733E-3
-6.8780063E-3 -1.2357037E-4
9.358867E-3 -2.5397718E-3
-9.246192E-3 3.4425096E-3
-4.7490587E-3 1.5650283E-3
9.748488E-3 -3.2042924E-3
-1.0470473E-4 7.1754884E-3
-4.449E-3 -6.8461144E-4
1.9227247E-3 7.843268E-3
-8.702722E-3 2.6907066E-3
-9.719924E-3 3.1575393E-3
8.779239E-3 -2.1749774E-3
8.835911E-3 -2.1493253E-3
6.516246E-3 -1.997087E-3
-9.122996E-3 2.637082E-3
6.9908313E-3 -3.0499275E-3
-1.2977192E-3 2.1219198E-4
7.7635404E-3 0
6.8870056E-3 -1.2361669E-3
3.4922299E-3 5.971712E-3
-7.3814E-3 7.5649325E-4
7.158577E-3 -4.981454E-5
-8.9426973E-4 3.3389665E-3
-9.381569E-3 3.3015527E-3
7.967714E-3 -1.7040139E-3
5.34628E-3 3.027615E-3
7.649715E-3 -3.7587925E-3
-3.202508E-3 -9.684302E-3
-3.2019129E-3 -6.9530653E-3
8.051831E-3 -2.5630058E-3
-8.085835E-3 3.539614E-3
-1.9222721E-3 -8.159887E-3
-7.6927466E-4 -1.0725185E-3
5.851263E-3 -4.768081E-3
-2.6123691E-3 -8.643676E-3
9.127885E-3 -3.4808486E-3
6.85413E-3 -3.944485E-3
-2.7887555E-4 2.0684232E-3
-8.494379E-3 1.782904E-3
2.2970706E-3 9.25066E-3
-2.3283362E-3 -8.23048E-3
-2.6560447E-3 -9.313919E-3
-7.2433744E-3 2.1904407E-3
3.3592435E-3 -2.1396787E-4
1.3709752E-3 8.355952E-3
-5.170414E-3 6.355155E-4
1.2224971E-3 9.111662E-3
1.326441E-4 4.6502836E-3
-5.6879926E-3 -1.0223407E-3
-7.890849E-3 7.9397165E-4
9.171186E-3 -1.2703057E-3
-8.028376E-3 5.2620063E-4
7.2615864E-3 4.7270674E-4
6.0125394E-3 1.8014594E-4
7.1714534E-3 -2.774058E-4
8.722786E-3 -1.189758E-3
7.979283E-3 -9.5444557E-4
-5.8300425E-3 1.8391757E-3
1.2966673E-3 4.124629E-3
8.730057E-3 -1.4316195E-3
-4.199651E-3 -2.6182106E-3
3.937132E-3 -1.8643582E-3
-9.046956E-3 1.1043693E-3
-8.997456E-3 1.2821214E-3
-8.782832E-3 9.3710836E-4
8.857923E-3 -9.324659E-4
1.2504695E-3 -4.870632E-3
6.495457E-4 -3.166111E-3
-6.035892E-3 -9.6792716E-4
-9.046832E-3 1.3380132E-3
2.2409794E-4 7.7494257E-3
-8.433756E-3 1.7647739E-3
-9.167031E-3 1.280033E-3
3.4354217E-3 4.1359058E-3
1.8386199E-3 -2.6627348E-3
-6.2503545E-3 -5.356557E-4
-7.3486683E-3 1.0210745E-3
9.141332E-3 -1.2469027E-3
-7.6011526E-3 8.538091E-6
-6.037223E-3 2.1560632E-3
4.892292E-3 3.7374868E-4
7.519687E-3 -1.4312289E-4
6.5015643E-3 -2.2223466E-3
-8.746316E-3 9.945974E-4
-7.458248E-3 2.4464123E-5
5.79716E-3 -1.20979996E-4
-9.144562E-3 1.2861667E-3
5.9998957E-3 -2.985991E-3
5.7289735E-3 -2.8032612E-3
5.244221E-3 1.9089448E-4
-6.8375943E-3 9.363662E-4
9.076865E-3 -1.2260943E-3
-8.469737E-3 6.3168653E-4
8.969162E-3 -1.0699929E-3
5.7070097E-3 1.6830817E-3
6.556707E-3 -2.5615138E-3
-2.1250064E-3 4.5662126E-4
-7.1309046E-3 2.1116952E-3
-6.2711346E-3 -2.6327698E-4
-4.792845E-3 -6.307161E-4
7.105388E-3 -9.960192E-4
5.772876E-3 -6.375942E-5
1.0679142E-3 8.840407E-3
-7.66136E-3 1.280142E-3
1.1224058E-3 -2.9866048E-3
-7.3956484E-3 1.4746847E-3
-8.742593E-3 1.400272E-3
-9.148789E-3 1.2548179E-3
-5.5122958E-3 -6.475406E-4
8.9913085E-3 -1.2564438E-3
-8.031602E-3 1.9074434E-3
8.987077E-3 -1.1043905E-3
6.448437E-3 -2.1220222E-3
2.8889757E-3 -4.4805156E-3
8.983657E-3 -1.3263524E-3
6.056524E-3 1.8630067E-3
-9.6058357E-4 5.320172E-4
-6.2532118E-3 -1.5616014E-4
8.396653E-3 -1.4062228E-3
4.424332E-3 1.4879104E-3
8.918255E-3 -1.4011863E-3
7.257038E-3 -2.54081E-3
-6.0817753E-3 -1.2047847E-3
8.706614E-3 -7.6283474E-4
-8.7504005E-3 1.5815913E-3
-4.462066E-3 6.3215103E-4
9.158054E-3 -1.29029E-3
-1.2354163E-3 6.348675E-3
-3.8376811E-3 -1.315718E-3
4.567793E-4 7.2638816E-3
-8.148584E-3 1.0012045E-3
-9.125272E-3 1.2533637E-3
8.134343E-3 -5.315196E-4
8.180533E-3 -4.997399E-4
6.098526E-3 -7.34044E-4
-8.512868E-3 8.867153E-4
6.6871694E-3 -1.5924474E-3
-1.1849882E-3 -1.839759E-5
6.8870056E-3 1.2361669E-3
6.3062664E-3 0
2.1470839E-3 5.85354E-3
-6.6684643E-3 -5.0423766E-4
6.3582766E-3 1.0956499E-3
-1.3249575E-3 2.819592E-3
-8.848049E-3 1.4349928E-3
7.3394524E-3 -2.4294629E-4
4.2605842E-3 3.5370584E-3
7.384534E-3 -2.1163668E-3
-1.2989272E-3 -9.100831E-3
-1.7332864E-3 -6.6778683E-3
7.5508473E-3 -9.915609E-4
-7.736514E-3 1.8524926E-3
-4.0596363E-4 -7.5446814E-3
-5.116464E-4 -1.0739162E-3
5.9498404E-3 -3.2980647E-3
-9.4111334E-4 -8.08373E-3
8.651556E-3 -1.6344391E-3
6.7083407E-3 -2.4077727E-3
-5.7673873E-4 1.7904852E-3
-7.819216E-3 2.2907053E-4
5.6476454E-4 8.57198E-3
-7.5494143E-4 -7.671961E-3
-8.7313674E-4 -8.685254E-3
-4.3295062E-4 7.469149E-3
9.451089E-4 -3.1909333E-3
8.222853E-3 1.5723838E-3
-1.1704701E-3 5.0156033E-3
8.873759E-3 1.9674979E-3
4.361601E-3 1.4601524E-3
-2.8855277E-3 4.931577E-3
-1.9496114E-3 7.594688E-3
1.9433878E-3 -8.945286E-3
-2.2449826E-3 7.6311743E-3
2.911111E-3 -6.579336E-3
2.2142923E-3 -5.519565E-3
2.1841621E-3 -6.7510633E-3
1.8654865E-3 -8.501653E-3
1.8307668E-3 -7.7314093E-3
-2.7780302E-4 6.037685E-3
4.269996E-3 2.0072563E-4
1.6434635E-3 -8.590748E-3
-3.8600974E-3 3.006741E-3
-3.9004764E-4 -4.2892406E-3
-2.0551144E-3 8.773479E-3
-1.8732703E-3 8.788051E-3
-2.1204422E-3 8.471369E-3
2.1503174E-3 -8.539489E-3
-4.095225E-3 -2.8189945E-3
-2.7176666E-3 -1.6808752E-3
-2.95347E-3 5.273028E-3
-1.8382019E-3 8.852913E-3
7.2693937E-3 2.4304234E-3
-1.2333457E-3 8.429147E-3
-1.9329438E-3 8.944741E-3
5.008642E-3 -1.7806478E-3
-1.8455856E-3 -2.6132022E-3
-2.6252489E-3 5.6192684E-3
-1.5542171E-3 7.1687517E-3
1.9549457E-3 -8.909606E-3
-2.5800262E-3 7.058374E-3
-5.4203112E-5 6.337882E-3
2.0125874E-3 -4.413825E-3
2.427367E-3 -7.0285783E-3
1.5077204E-4 -6.7914557E-3
-2.0546478E-3 8.457048E-3
-2.5165894E-3 6.9311503E-3
1.8614541E-3 -5.4221717E-3
-1.9196006E-3 8.925974E-3
-7.2885293E-4 -6.585799E-3
-6.5148115E-4 -6.2721125E-3
1.9626813E-3 -4.8027458E-3
-1.4588395E-3 6.665527E-3
1.9523117E-3 -8.842684E-3
-2.297339E-3 8.076765E-3
2.0605368E-3 -8.689566E-3
3.5053096E-3 -4.724268E-3
-1.4527215E-4 -6.9581154E-3
-2.9965685E-4 2.1279175E-3
-4.6775E-4 7.3379423E-3
-2.379499E-3 5.7312925E-3
-2.2172488E-3 4.2340285E-3
1.4946443E-3 -6.934406E-3
1.9062994E-3 -5.38015E-3
8.569347E-3 2.01863E-3
-1.4202093E-3 7.5471993E-3
-2.3900531E-3 -2.0586725E-3
-1.1491665E-3 7.3667984E-3
-1.6768292E-3 8.5917115E-3
-1.9501374E-3 8.919224E-3
-2.4778154E-3 4.8961015E-3
1.8950121E-3 -8.773603E-3
-9.639976E-4 8.104438E-3
2.0347082E-3 -8.717906E-3
2.2580568E-4 -6.707986E-3
-3.1752551E-3 -4.20705E-3
1.8275168E-3 -8.790302E-3
3.7913162E-3 -4.9874317E-3
1.6677547E-4 1.0727583E-3
-2.2739698E-3 5.7511264E-3
1.5535243E-3 -8.272633E-3
2.8874383E-3 -3.6001233E-3
1.7357876E-3 -8.755074E-3
1.12386006E-4 -7.601121E-3
-3.1889451E-3 5.2349744E-3
2.2562554E-3 -8.341289E-3
-1.5111851E-3 8.660693E-3
-9.32423E-4 4.3569617E-3
1.920367E-3 -8.939901E-3
5.4722843E-3 3.3082485E-3
-2.5278716E-3 3.1142142E-3
6.8979263E-3 2.049134E-3
-1.8450062E-3 7.9044765E-3
-1.9434809E-3 8.8969E-3
2.276124E-3 -7.731344E-3
2.321348E-3 -7.763398E-3
1.3950075E-3 -5.910632E-3
-2.075303E-3 8.203628E-3
7.986436E-4 -6.7492765E-3
-4.2052774E-4 1.0936541E-3
3.4922299E-3 -5.971712E-3
2.1470839E-3 -5.85354E-3
6.1643287E-3 0
-2.7384392E-3 6.018059E-3
3.1817849E-3 -5.5287825E-3
2.1660675E-3 2.1898204E-3
-1.6805052E-3 8.701418E-3
2.2733456E-3 -6.8952693E-3
4.7337273E-3 -2.7504612E-3
5.4976647E-4 -7.574954E-3
-8.889727E-3 -1.8928671E-3
-6.7885937E-3 -6.6474814E-4
1.6504473E-3 -7.346368E-3
-9.145358E-4 7.8118253E-3
-7.141267E-3 -2.1919052E-3
-1.1710193E-3 1.0928088E-4
-1.0355649E-3 -6.645588E-3
-7.823818E-3 -1.8787027E-3
1.4284777E-3 -8.586937E-3
4.9058548E-5 -7.04652E-3
1.4655853E-3 1.1449382E-3
-2.4495695E-3 7.335867E-3
8.148883E-3 2.394267E-3
-7.3782247E-3 -1.9113153E-3
-8.359015E-3 -2.1465987E-3
7.4842507E-3 -2.8954148E-3
-3.5350719E-3 4.9485604E-4
-2.1178436E-3 -8.726253E-3
5.4165605E-3 -1.085433E-3
-2.0212634E-3 -9.537239E-3
-5.1209086E-4 -4.9067647E-3
6.096424E-3 6.262566E-4
8.2805725E-3 -1.4705113E-3
-9.596358E-3 2.076577E-3
8.447409E-3 -1.1983574E-3
-7.71645E-3 8.07669E-5
-6.372271E-3 2.9025928E-4
-7.561162E-3 8.667548E-4
-9.128644E-3 1.9555495E-3
-8.361255E-3 1.647273E-3
6.017831E-3 -2.4109678E-3
-1.7009387E-3 -4.257846E-3
-9.116994E-3 2.2118837E-3
4.650204E-3 2.4327901E-3
-4.014189E-3 2.286243E-3
9.47826E-3 -1.8911767E-3
9.411706E-3 -2.07518E-3
9.212341E-3 -1.6931902E-3
-9.292115E-3 1.6942851E-3
-9.3284255E-4 5.2503604E-3
-4.3369553E-4 3.399892E-3
6.4599556E-3 5.409007E-4
9.459448E-3 -2.1382305E-3
-8.5659925E-4 -8.176592E-3
8.777036E-3 -2.5404808E-3
9.591186E-3 -2.0865307E-3
-3.963433E-3 -4.09876E-3
-1.7313128E-3 2.9626808E-3
6.6521713E-3 6.66539E-5
7.6890923E-3 -1.6673056E-3
-9.56666E-3 2.0494426E-3
8.03704E-3 -6.1680336E-4
6.2115733E-3 -2.7626215E-3
-5.203163E-3 -4.035885E-6
-7.940134E-3 7.526035E-4
-6.697284E-3 2.8698393E-3
9.169131E-3 -1.7510611E-3
7.884653E-3 -6.2221725E-4
-6.1204433E-3 5.914588E-4
9.566937E-3 -2.0912194E-3
-6.1057424E-3 3.6372314E-3
-5.833871E-3 3.4223436E-3
-5.5606845E-3 2.174603E-4
7.1554384E-3 -1.5368678E-3
-9.500155E-3 2.022284E-3
8.905684E-3 -1.3451922E-3
-9.398746E-3 1.8486053E-3
-6.1693657E-3 -1.3234267E-3
-6.7284745E-3 3.2328959E-3
2.2105447E-3 -6.527589E-4
7.3716175E-3 -2.803154E-3
6.6523654E-3 -2.2303032E-4
5.118551E-3 2.8371374E-4
-7.4338433E-3 1.6213593E-3
-6.099341E-3 5.290099E-4
-1.8361122E-3 -9.262764E-3
7.999029E-3 -1.9662553E-3
-9.480672E-4 3.247885E-3
7.7025015E-3 -2.1507253E-3
9.132757E-3 -2.1797377E-3
9.573913E-3 -2.0584087E-3
5.880668E-3 2.4397855E-4
-9.407259E-3 2.0475362E-3
8.340378E-3 -2.6591893E-3
-9.41494E-3 1.8864115E-3
-6.649127E-3 2.759505E-3
-2.696649E-3 4.9688495E-3
-9.3935765E-3 2.120848E-3
-6.5533402E-3 -1.4857389E-3
9.7321515E-4 -6.393799E-4
6.624848E-3 -3.3486646E-4
-8.766472E-3 2.1583696E-3
-4.7974125E-3 -1.2196063E-3
-9.318435E-3 2.1947504E-3
-7.470684E-3 3.2669997E-3
6.527412E-3 7.876932E-4
-9.145681E-3 1.5028128E-3
9.126516E-3 -2.3720954E-3
4.667797E-3 -1.0252371E-3
-9.580875E-3 2.0966588E-3
7.987432E-4 -6.81209E-3
4.1632997E-3 1.0844318E-3
-1.0638213E-3 -7.644556E-3
8.53654E-3 -1.7102543E-3
9.549162E-3 -2.0549905E-3
-8.559036E-3 1.2124544E-3
-8.61042E-3 1.1825432E-3
-6.3900994E-3 1.2638307E-3
8.9309E-3 -1.6183171E-3
-6.9439155E-3 2.218603E-3
1.2545185E-3 -7.5295255E-5
-7.3814E-3 -7.5649325E-4
-6.6684643E-3 5.0423766E-4
-2.7384392E-3 -6.018059E-3
7.0917825E-3 0
-6.8110684E-3 -6.5018184E-4
1.1756063E-3 -3.087475E-3
9.241493E-3 -2.2248847E-3
-7.7415654E-3 8.437494E-4
-4.7881063E-3 -3.3995393E-3
-7.63944E-3 2.8283733E-3
2.1012167E-3 9.519675E-3
2.3667873E-3 6.9228183E-3
-7.905244E-3 1.6522632E-3
8.032736E-3 -2.5774874E-3
1.0325392E-3 7.945547E-3
6.26901E-4 1.094686E-3
-6.02786E-3 3.963226E-3
1.6415262E-3 8.472767E-3
-9.017768E-3 2.4200752E-3
-6.9011105E-3 3.0824488E-3
4.6669942E-4 -1.9394361E-3
8.249993E-3 -8.674372E-4
-1.282602E-3 -9.0191495E-3
1.4117373E-3 8.052233E-3
1.6177427E-3 9.114274E-3
-6.922547E-3 3.4669696E-3
3.349774E-3 -7.9936726E-4
2.8340446E-3 8.186675E-3
-5.1026423E-3 1.5390641E-3
2.8156394E-3 8.974414E-3
9.4167807E-4 4.665591E-3
-5.912525E-3 -4.2541044E-5
-7.817985E-3 2.1714752E-3
9.026122E-3 -2.8741837E-3
-8.003168E-3 1.9253897E-3
7.4036047E-3 -7.850219E-4
6.0934257E-3 -8.6298643E-4
7.182403E-3 -1.525661E-3
8.588018E-3 -2.715066E-3
7.8792665E-3 -2.3486374E-3
-5.5585867E-3 2.8672554E-3
2.0239742E-3 3.9333636E-3
8.553328E-3 -2.9601862E-3
-4.6891756E-3 -1.9101574E-3
3.6456902E-3 -2.5637716E-3
-8.929697E-3 2.685295E-3
-8.848906E-3 2.855913E-3
-8.692455E-3 2.4707657E-3
8.768971E-3 -2.4791309E-3
4.1455944E-4 -5.1280595E-3
1.0482284E-4 -3.3050755E-3
-6.253841E-3 7.2765055E-5
-8.888979E-3 2.9208446E-3
1.572331E-3 7.7744033E-3
-8.196701E-3 3.2446089E-3
-9.020244E-3 2.883269E-3
4.1823266E-3 3.5731466E-3
1.3911605E-3 -3.0041374E-3
-6.3949693E-3 5.458625E-4
-7.2318753E-3 2.3062527E-3
9.000087E-3 -2.845401E-3
-7.6623596E-3 1.3292322E-3
-5.71242E-3 3.2227521E-3
4.9975757E-3 -4.7315517E-4
7.55684E-3 -1.4507732E-3
6.169075E-3 -3.3702564E-3
-8.64565E-3 2.5223843E-3
-7.515509E-3 1.3204612E-3
5.8239526E-3 -1.1291758E-3
-8.996523E-3 2.8855498E-3
5.5305935E-3 -4.0530395E-3
5.289185E-3 -3.821732E-3
5.320639E-3 -7.1866176E-4
-6.7313025E-3 2.1320519E-3
8.938705E-3 -2.81322E-3
-8.429841E-3 2.1084277E-3
8.857233E-3 -2.637119E-3
6.046497E-3 7.054277E-4
6.165746E-3 -3.7218016E-3
-2.063199E-3 8.295857E-4
-6.8228305E-3 3.368034E-3
-6.368597E-3 8.240979E-4
-4.9419547E-3 1.9679056E-4
6.990941E-3 -2.2387232E-3
5.80941E-3 -1.0672641E-3
2.6126532E-3 8.727779E-3
-7.5021354E-3 2.6217839E-3
6.127703E-4 -3.2062435E-3
-7.200432E-3 2.7717664E-3
-8.571413E-3 2.930758E-3
-9.006231E-3 2.8546772E-3
-5.6702616E-3 3.048248E-4
8.84717E-3 -2.8289554E-3
-7.7664433E-3 3.318585E-3
8.86932E-3 -2.6749128E-3
6.1329403E-3 -3.2598742E-3
2.134358E-3 -5.0193984E-3
8.827309E-3 -2.898111E-3
6.4301533E-3 8.2611176E-4
-8.7607326E-4 7.032966E-4
-6.331916E-3 9.289844E-4
8.221588E-3 -2.8766545E-3
4.7193314E-3 7.3149876E-4
8.748366E-3 -2.9621995E-3
6.875449E-3 -3.8226023E-3
-6.3412534E-3 -1.5807379E-4
8.6458875E-3 -2.2818127E-3
-8.547785E-3 3.1149287E-3
-4.3890364E-3 1.4126035E-3
9.00941E-3 -2.8920511E-3
-1.4258725E-4 6.615677E-3
-4.097925E-3 -6.5981114E-4
1.7225728E-3 7.2444296E-3
-8.041839E-3 2.425196E-3
-8.982773E-3 2.8491246E-3
8.109084E-3 -1.9491629E-3
8.161176E-3 -1.9251467E-3
6.021291E-3 -1.7996553E-3
-8.42902E-3 2.3730532E-3
6.46565E-3 -2.7674092E-3
-1.1979577E-3 1.8733046E-4
7.158577E-3 4.981454E-5
6.3582766E-3 -1.0956499E-3
3.1817849E-3 5.5287825E-3
-6.8110684E-3 6.5018184E-4
6.6010747E-3 0
-8.460093E-4 3.0730441E-3
-8.6717075E-3 2.9840868E-3
7.3577752E-3 -1.520106E-3
4.9102516E-3 2.8259966E-3
7.07774E-3 -3.4168095E-3
-2.8908176E-3 -8.950215E-3
-2.9077937E-3 -6.431802E-3
7.4408483E-3 -2.3116223E-3
-7.4784695E-3 3.2119122E-3
-1.7201242E-3 -7.536373E-3
-7.024483E-4 -9.938799E-4
5.425906E-3 -4.35899E-3
-2.3533416E-3 -7.986891E-3
8.438942E-3 -3.1510396E-3
6.345341E-3 -3.593137E-3
-2.7041655E-4 1.9054547E-3
-7.843906E-3 1.5894694E-3
2.0587174E-3 8.544554E-3
-2.0940932E-3 -7.604071E-3
-2.3893134E-3 -8.605186E-3
2.5012123E-3 2.7783667E-3
-8.0145E-4 -1.4569949E-3
3.4479818E-3 -2.3685761E-3
1.3704578E-3 2.1782187E-3
3.8170626E-3 -2.4609661E-3
2.0513174E-3 -1.0363391E-3
7.379588E-4 2.7579512E-3
2.0128733E-3 3.3612591E-3
-2.4948479E-3 -3.8336315E-3
1.922045E-3 3.479008E-3
-1.31432E-3 -3.346041E-3
-1.1826999E-3 -2.7261125E-3
-1.6307655E-3 -3.1481418E-3
-2.3646243E-3 -3.6500704E-3
-2.1032032E-3 -3.3670827E-3
2.0472151E-3 2.2202535E-3
1.5717288E-3 -1.446344E-3
-2.4742908E-3 -3.6025057E-3
-2.8827298E-4 2.427795E-3
-1.6607706E-3 -1.3686245E-3
2.3945551E-3 3.8129503E-3
2.4636297E-3 3.7534724E-3
2.2642782E-3 3.7299998E-3
-2.2779792E-3 -3.764549E-3
-2.440432E-3 4.6423142E-4
-1.5520691E-3 3.7478734E-4
8.3538186E-4 2.9020684E-3
2.4989937E-3 3.7638063E-3
3.4177587E-3 -1.728364E-3
2.5609937E-3 3.400031E-3
2.498324E-3 3.8297302E-3
1.127415E-3 -2.4049706E-3
-1.5768313E-3 -2.6261935E-4
1.0737135E-3 2.9071355E-3
2.0004997E-3 3.07113E-3
-2.4781115E-3 -3.8252003E-3
1.600833E-3 3.3967544E-3
2.2324275E-3 2.2463072E-3
-8.607723E-4 -2.2659155E-3
-1.643891E-3 -3.3320535E-3
-2.3596222E-3 -2.4399923E-3
2.28231E-3 3.701595E-3
1.5779288E-3 3.3295138E-3
-1.2720845E-3 -2.5665471E-3
2.4963457E-3 3.8183953E-3
-2.5956538E-3 -2.0552487E-3
-2.457032E-3 -1.9725088E-3
-1.0164692E-3 -2.3848487E-3
1.8552485E-3 2.8604215E-3
-2.4552634E-3 -3.8007488E-3
2.0619393E-3 3.654182E-3
-2.36284E-3 -3.7853902E-3
-4.465306E-4 -2.9052768E-3
-2.5228527E-3 -2.3933877E-3
6.5062725E-4 8.5417373E-4
2.4423744E-3 2.7446244E-3
1.1998625E-3 2.8591992E-3
7.249859E-4 2.2754413E-3
-1.9381841E-3 -2.9676217E-3
-1.2413986E-3 -2.5677118E-3
3.72826E-3 -2.3348595E-3
2.1820287E-3 3.156507E-3
-1.571159E-3 1.256525E-4
2.213184E-3 2.996831E-3
2.4629089E-3 3.6146971E-3
2.4832175E-3 3.8268713E-3
8.686212E-4 2.6006494E-3
-2.4508573E-3 -3.756119E-3
2.5402897E-3 3.190249E-3
-2.381984E-3 -3.7861734E-3
-2.303604E-3 -2.437317E-3
-2.61026E-3 -3.5032452E-4
-2.4805064E-3 -3.7380098E-3
-4.3951804E-4 -3.0993505E-3
4.3969022E-4 3.1770833E-4
1.2439898E-3 2.8286802E-3
-2.3928871E-3 -3.4587742E-3
-2.6430096E-4 -2.290774E-3
-2.5002246E-3 -3.6930451E-3
-2.6607367E-3 -2.710862E-3
7.3912076E-4 2.972347E-3
-2.1703455E-3 -3.7325379E-3
2.5456187E-3 3.5800927E-3
1.2201283E-3 1.8622162E-3
-2.501024E-3 -3.8235614E-3
3.0981165E-3 -7.8150124E-4
2.1803334E-4 1.9922983E-3
3.1517805E-3 -1.7303844E-3
2.1596795E-3 3.4329547E-3
2.4776263E-3 3.8166621E-3
-1.9466869E-3 -3.5252685E-3
-1.9421824E-3 -3.5525977E-3
-1.609509E-3 -2.5724852E-3
2.185027E-3 3.619884E-3
-2.1169842E-3 -2.6553213E-3
2.4074233E-4 5.336849E-4
-8.9426973E-4 -3.3389665E-3
-1.3249575E-3 -2.819592E-3
2.1660675E-3 -2.1898204E-3
1.1756063E-3 3.087475E-3
-8.460093E-4 -3.0730441E-3
1.5390422E-3 0
2.5005892E-3 3.6545526E-3
-1.6506554E-3 -3.2304958E-3
6.862964E-4 -2.64809E-3
-2.497751E-3 -2.8570432E-3
-3.796162E-3 2.4928632E-3
-2.621572E-3 2.1780005E-3
-2.0297824E-3 -3.167727E-3
2.4537223E-3 3.0698574E-3
-3.2880052E-3 1.7666606E-3
-3.726604E-4 4.5439368E-4
-2.7246678E-3 -1.9673016E-3
-3.4165834E-3 2.1191863E-3
-2.5484804E-3 -3.524795E-3
-2.485972E-3 -2.4934858E-3
9.2171686E-4 -1.1831867E-4
1.7452503E-3 3.4479185E-3
3.7139554E-3 -2.0534992E-3
-3.2715923E-3 1.9494336E-3
-3.699812E-3 2.2151747E-3
1.06613E-2 -1.4250805E-3
-4.761898E-3 -4.6418796E-4
-2.2156915E-5 -1.203584E-2
7.398996E-3 2.848651E-4
3.581282E-4 -1.3062359E-2
8.7206624E-4 -6.5547945E-3
7.7479417E-3 2.728706E-3
1.1251978E-2 6.8157754E-4
-1.3156753E-2 -3.0459487E-4
1.1384005E-2 1.0885698E-3
-1.00808535E-2 -2.3156109E-3
-8.394941E-3 -1.6209098E-3
-1.012508E-2 -1.2426501E-3
-1.2509292E-2 -3.1557435E-4
-1.1412571E-2 -4.7654667E-4
8.598384E-3 -1.2538402E-3
-8.807375E-4 -6.0821446E-3
-1.257453E-2 2.2116667E-5
5.296574E-3 4.62913E-3
-5.948255E-3 1.7199048E-3
1.2944692E-2 5.091444E-4
1.2915688E-2 2.484844E-4
1.253605E-2 6.837193E-4
-1.264035E-2 -7.073203E-4
-2.8627932E-3 6.549229E-3
-1.6317989E-3 4.294429E-3
8.248447E-3 2.7315258E-3
1.2997684E-2 1.8130016E-4
1.4489617E-3 -1.0923877E-2
1.2234612E-2 -5.569745E-4
1.3153136E-2 2.9000195E-4
-3.8789648E-3 -6.5846415E-3
-3.185594E-3 3.3175894E-3
8.647714E-3 2.1738256E-3
1.0542944E-2 2.3956619E-4
-1.310954E-2 -3.3063727E-4
1.0666792E-2 1.7176645E-3
8.961179E-3 -1.6513076E-3
-6.779116E-3 -1.6376328E-3
-1.0583115E-2 -1.5102972E-3
-9.6277585E-3 1.6386454E-3
1.2497899E-2 5.947501E-4
1.0469912E-2 1.6628022E-3
-8.161273E-3 -1.1494032E-3
1.31230075E-2 2.762831E-4
-9.097656E-3 2.8242369E-3
-8.675958E-3 2.6295045E-3
-7.3145023E-3 -1.4611598E-3
9.806603E-3 2.421214E-4
-1.3014354E-2 -3.451635E-4
1.2027261E-2 1.0409986E-3
-1.2827719E-2 -5.396743E-4
-7.6242727E-3 -3.6600907E-3
-9.782305E-3 2.1019687E-3
3.0854088E-3 -1.5711981E-4
1.048558E-2 -1.3401891E-3
8.738847E-3 1.7963909E-3
6.581114E-3 1.9755438E-3
-1.0195907E-2 -2.1936155E-4
-8.1141805E-3 -1.2241616E-3
5.1329285E-4 -1.2646598E-2
1.1040619E-2 -5.276736E-5
-2.2544016E-3 3.934972E-3
1.0712079E-2 -3.8618463E-4
1.2584986E-2 2.4718627E-5
1.3121803E-2 3.212279E-4
7.5867153E-3 2.1628605E-3
-1.29012205E-2 -2.8311324E-4
1.1702833E-2 -8.48658E-4
-1.2860682E-2 -4.9548893E-4
-9.530389E-3 1.5099744E-3
-5.072939E-3 5.62903E-3
-1.2906392E-2 -1.8328578E-4
-8.073718E-3 -3.992067E-3
1.4688137E-3 -5.278692E-4
8.738076E-3 1.6420215E-3
-1.2100968E-2 6.234908E-5
-5.8690147E-3 -3.0943807E-3
-1.2831657E-2 -6.3407344E-5
-1.0760197E-2 1.9135596E-3
8.258927E-3 3.0742907E-3
-1.2389458E-2 -9.108924E-4
1.26372E-2 -2.2790534E-4
6.404377E-3 1.2840067E-4
-1.3142875E-2 -2.735677E-4
3.1780018E-3 -8.626432E-3
5.085092E-3 2.7192924E-3
1.0120107E-3 -1.0295577E-2
1.1660749E-2 4.4946556E-4
1.3088478E-2 3.1791773E-4
-1.1533891E-2 -1.1052195E-3
-1.1591467E-2 -1.1603184E-3
-8.72361E-3 -3.5781597E-4
1.2145808E-2 6.929932E-4
-9.74484E-3 7.126267E-4
1.6584193E-3 2.9545723E-4
-9.381569E-3 -3.3015527E-3
-8.848049E-3 -1.4349928E-3
-1.6805052E-3 -8.701418E-3
9.241493E-3 2.2248847E-3
-8.6717075E-3 -2.9840868E-3
2.5005892E-3 -3.6545526E-3
1.2740848E-2 0
-1.03529515E-2 -1.3292271E-3
-5.172983E-3 -5.9321905E-3
-1.0842499E-2 1.2890301E-3
-2.4842832E-4 1.3064554E-2
9.123483E-4 9.763838E-3
-1.0819896E-2 -3.269807E-4
1.1276303E-2 -8.3870586E-4
-1.1472041E-3 1.0677992E-2
4.7349892E-4 1.6231906E-3
-9.098439E-3 3.2734838E-3
-5.190196E-4 1.15560815E-2
-1.2510541E-2 3.2454703E-4
-9.960072E-3 1.8517566E-3
1.2166224E-3 -2.3809152E-3
1.1022929E-2 1.457866E-3
1.1581588E-3 -1.2155485E-2
-6.865314E-4 1.0935983E-2
-7.51271E-4 1.2384586E-2
-8.514478E-3 2.270263E-3
3.9178478E-3 -1.196097E-4
1.2736793E-3 9.777766E-3
-6.041991E-3 5.4044696E-4
1.0717623E-3 1.0651567E-2
-2.4774528E-5 5.4172724E-3
-6.5804985E-3 -1.4089632E-3
-9.214234E-3 6.2006025E-4
1.0722686E-2 -1.1251098E-3
-9.363977E-3 3.031207E-4
8.433077E-3 8.299023E-4
6.990663E-3 4.4129093E-4
8.357075E-3 -4.657713E-5
1.0197718E-2 -1.0486398E-3
9.323338E-3 -8.034184E-4
-6.856061E-3 1.9158969E-3
1.350207E-3 4.85034E-3
1.0215498E-2 -1.3298471E-3
-4.7868355E-3 -3.208955E-3
4.6539954E-3 -2.0181288E-3
-1.0571708E-2 9.367734E-4
-1.0520947E-2 1.1455542E-3
-1.0257868E-2 7.522846E-4
1.0345082E-2 -7.4398797E-4
1.6429792E-3 -5.620438E-3
8.779371E-4 -3.6598071E-3
-6.987494E-3 -1.359038E-3
-1.0580566E-2 1.208701E-3
-3.7730057E-5 9.027685E-3
-9.883487E-3 1.7289985E-3
-1.0718225E-2 1.136591E-3
3.8389296E-3 4.94586E-3
2.242431E-3 -3.0281516E-3
-7.2537456E-3 -8.6420774E-4
-8.591974E-3 9.052571E-4
1.0687037E-2 -1.0990227E-3
-8.846817E-3 -2.8289453E-4
-7.109393E-3 2.2767202E-3
5.6794216E-3 6.234552E-4
8.757189E-3 1.2312194E-4
7.652363E-3 -2.3359742E-3
-1.0217585E-2 8.205987E-4
-8.681112E-3 -2.5885404E-4
6.7515974E-3 8.253257E-5
-1.06923105E-2 1.1445949E-3
7.0979227E-3 -3.244057E-3
6.7755743E-3 -3.0418267E-3
6.0960543E-3 4.2420113E-4
-7.993904E-3 8.2635996E-4
1.0611207E-2 -1.0772886E-3
-9.881712E-3 4.0888594E-4
1.0479844E-2 -8.997617E-4
6.5771774E-3 2.1786902E-3
7.729606E-3 -2.7285847E-3
-2.4907477E-3 4.4956678E-4
-8.380548E-3 2.1829493E-3
-7.288423E-3 -5.480038E-4
-5.553783E-3 -9.186918E-4
8.3078705E-3 -8.8547E-4
6.721131E-3 1.4819244E-4
9.023027E-4 1.0329916E-2
-8.965875E-3 1.1947228E-3
1.4213527E-3 -3.432675E-3
-8.664126E-3 1.4313752E-3
-1.0228881E-2 1.2928802E-3
-1.0696022E-2 1.1079478E-3
-6.3904556E-3 -9.659893E-4
1.0512803E-2 -1.1159066E-3
-9.4209425E-3 1.9105353E-3
1.050202E-2 -9.39105E-4
7.5866655E-3 -2.2212605E-3
3.5349007E-3 -5.103284E-3
1.0506591E-2 -1.197563E-3
6.977022E-3 2.4015573E-3
-1.1384564E-3 5.821741E-4
-7.27169E-3 -4.2264705E-4
9.826493E-3 -1.3131332E-3
5.0918716E-3 1.9021276E-3
1.0433357E-2 -1.287177E-3
8.543877E-3 -2.6775089E-3
-7.031769E-3 -1.6364685E-3
1.016245E-2 -5.5239466E-4
-1.02449525E-2 1.5036053E-3
-5.2174614E-3 5.638199E-4
1.0708171E-2 -1.1488743E-3
-1.682401E-3 7.341216E-3
-4.4157403E-3 -1.679124E-3
2.5177753E-4 8.471557E-3
-9.522178E-3 8.51316E-4
-1.0668595E-2 1.1071612E-3
9.487509E-3 -3.052287E-4
9.540041E-3 -2.6646315E-4
7.1259565E-3 -6.193624E-4
-9.9417325E-3 7.040353E-4
7.84411E-3 -1.5957252E-3
-1.3784219E-3 -6.7062945E-5
7.967714E-3 1.7040139E-3
7.3394524E-3 2.4294629E-4
2.2733456E-3 6.8952693E-3
-7.7415654E-3 -8.437494E-4
7.3577752E-3 1.520106E-3
-1.6506554E-3 3.2304958E-3
-1.03529515E-2 1.3292271E-3
8.551271E-3 0
4.8223534E-3 4.280689E-3
8.67591E-3 -2.1786152E-3
-1.1611307E-3 -1.0641906E-2
-1.759997E-3 -7.838711E-3
8.826138E-3 -8.6312E-4
-9.075392E-3 1.8579492E-3
-1.8181851E-4 -8.796403E-3
-5.5409974E-4 -1.2695723E-3
7.0516896E-3 -3.6091874E-3
-7.838781E-4 -9.444383E-3
1.0131949E-2 -1.5689197E-3
7.90016E-3 -2.5438135E-3
-7.402064E-4 2.0616108E-3
-9.109102E-3 -3.4632503E-5
3.2706078E-4 9.998126E-3
-5.830677E-4 -8.95798E-3
-6.8159134E-4 -1.0141839E-2
-3.6651313E-3 5.54255E-3
2.1495325E-3 -2.0286916E-3
5.6129326E-3 4.8764227E-3
-3.1367422E-3 3.329343E-3
5.936482E-3 5.4702675E-3
2.6978666E-3 3.0673866E-3
-4.416282E-3 2.499576E-3
-4.885824E-3 4.9622357E-3
5.4836683E-3 -6.0021672E-3
-5.1289257E-3 4.8584626E-3
5.1711416E-3 -3.7535122E-3
4.1631795E-3 -3.2506043E-3
4.6895235E-3 -4.209743E-3
5.225901E-3 -5.6962497E-3
4.8555643E-3 -5.120254E-3
-2.9072855E-3 4.512522E-3
3.1894646E-3 2.0593707E-3
5.095158E-3 -5.863732E-3
-4.3058335E-3 5.866076E-4
1.6142896E-3 -3.4678401E-3
-5.4928064E-3 5.8203805E-3
-5.359666E-3 5.912708E-3
-5.408175E-3 5.5592353E-3
5.4615107E-3 -5.598216E-3
-1.887009E-3 -3.9920174E-3
-1.3369679E-3 -2.5033774E-3
-4.6208077E-3 2.7314685E-3
-5.361677E-3 5.9781643E-3
4.4979006E-3 5.109907E-3
-4.708114E-3 5.922626E-3
-5.4754047E-3 6.0064085E-3
4.640756E-3 8.674055E-4
-2.5128227E-4 -2.8302188E-3
-4.5232484E-3 3.1438037E-3
-4.3921433E-3 4.81157E-3
5.476624E-3 -5.9696115E-3
-5.1306356E-3 4.269103E-3
-2.869523E-3 4.842818E-3
3.5149152E-3 -2.4914797E-3
5.0001107E-3 -4.3143374E-3
3.1460603E-3 -5.148039E-3
-5.35126E-3 5.577595E-3
-5.025155E-3 4.1997097E-3
3.848771E-3 -3.333246E-3
-5.4567843E-3 5.99795E-3
2.3788146E-3 -5.3825905E-3
2.2982664E-3 -5.1071816E-3
3.6501242E-3 -2.8124084E-3
-4.0943664E-3 4.467689E-3
5.444741E-3 -5.919395E-3
-5.367949E-3 5.1772804E-3
5.4595293E-3 -5.7535223E-3
4.799727E-3 -2.0638385E-3
2.9930833E-3 -5.4081134E-3
-1.1795686E-3 1.500372E-3
-3.6333113E-3 5.426266E-3
-4.3845163E-3 3.3394806E-3
-3.5918565E-3 2.262092E-3
4.241833E-3 -4.6581915E-3
3.864459E-3 -3.280967E-3
5.679902E-3 5.3737075E-3
-4.458095E-3 5.1619816E-3
-9.1681676E-4 -2.6473189E-3
-4.169462E-3 5.144384E-3
-5.12121E-3 5.849585E-3
-5.477222E-3 5.9791417E-3
-4.087361E-3 2.6542505E-3
5.369915E-3 -5.8919126E-3
-4.3563936E-3 5.793455E-3
5.4523395E-3 -5.7868105E-3
3.1664367E-3 -5.0504613E-3
-5.6120683E-4 -4.647455E-3
5.3255353E-3 -5.9348512E-3
5.1367786E-3 -2.1383145E-3
-3.5058326E-4 8.982089E-4
-4.312327E-3 3.4017977E-3
4.8841517E-3 -5.6595746E-3
3.823668E-3 -1.4762703E-3
5.2393763E-3 -5.9487275E-3
3.477847E-3 -5.7869265E-3
-4.7846553E-3 2.59718E-3
5.4544285E-3 -5.398745E-3
-5.0247866E-3 5.976465E-3
-2.6600612E-3 2.9297716E-3
5.4635867E-3 -6.0083037E-3
2.7261837E-3 4.982156E-3
-3.3307406E-3 1.2635645E-3
4.382771E-3 4.651362E-3
-4.9437196E-3 5.2468027E-3
-5.46215E-3 5.964969E-3
5.1975343E-3 -4.9214903E-3
5.2465657E-3 -4.9259267E-3
3.7085223E-3 -3.9164694E-3
-5.2540484E-3 5.373772E-3
3.6247554E-3 -4.826575E-3
-8.109102E-4 6.5220654E-4
5.34628E-3 -3.027615E-3
4.2605842E-3 -3.5370584E-3
4.7337273E-3 2.7504612E-3
-4.7881063E-3 3.3995393E-3
4.9102516E-3 -2.8259966E-3
6.862964E-4 2.64809E-3
-5.172983E-3 5.9321905E-3
4.8223534E-3 -4.280689E-3
4.8623644E-3 0
3.8020464E-3 -5.5716783E-3
-5.982044E-3 -5.4200822E-3
-4.9165105E-3 -3.5394772E-3
4.545291E-3 -4.9050287E-3
-4.1878507E-3 5.5908207E-3
-4.505934E-3 -4.8695747E-3
-9.480121E-4 -4.3857773E-4
2.1699609E-3 -5.565356E-3
-5.169829E-3 -4.9336073E-3
4.9283644E-3 -5.95673E-3
3.1817593E-3 -5.3892923E-3
6.145961E-4 1.5331532E-3
-5.1542697E-3 4.5404043E-3
5.1894127E-3 5.4745604E-3
-4.8130956E-3 -4.7598314E-3
-5.4612863E-3 -5.3781304E-3
-9.216977E-3 1.3411156E-4
4.005426E-3 8.7680074E-4
-1.198847E-3 1.0244778E-2
-6.2677464E-3 -9.909999E-4
-1.6263264E-3 1.1079873E-2
-1.4052993E-3 5.4899203E-3
-6.31745E-3 -3.1060192E-3
-9.50651E-3 -1.7184211E-3
1.1165619E-2 1.5903197E-3
-9.577688E-3 -2.07813E-3
8.344558E-3 2.9905017E-3
6.980127E-3 2.2287404E-3
8.49075E-3 2.0818838E-3
1.0613518E-2 1.5341579E-3
9.663918E-3 1.560187E-3
-7.4441056E-3 1.970969E-4
1.3416096E-4 5.26503E-3
1.07032E-2 1.2533816E-3
-4.0390575E-3 -4.4752737E-3
5.2359905E-3 -8.6184137E-4
-1.096446E-2 -1.7429368E-3
-1.0966149E-2 -1.5181802E-3
-1.0599041E-2 -1.8501575E-3
1.0685414E-2 1.8807936E-3
3.098851E-3 -5.2837757E-3
1.8231459E-3 -3.4894778E-3
-6.7430963E-3 -3.1590569E-3
-1.1042724E-2 -1.469302E-3
-2.338272E-3 9.149655E-3
-1.0468042E-2 -7.638259E-4
-1.1164019E-2 -1.5775351E-3
2.6348224E-3 5.9959963E-3
3.0466006E-3 -2.5009823E-3
-7.139297E-3 -2.724847E-3
-8.947839E-3 -1.2705334E-3
1.1122805E-2 1.6077048E-3
-8.903691E-3 -2.5409292E-3
-7.7930577E-3 4.9863814E-4
5.6033637E-3 2.0794938E-3
8.853461E-3 2.3559933E-3
8.359038E-3 -4.204228E-4
-1.0575576E-2 -1.7705843E-3
-8.741695E-3 -2.4743218E-3
6.8289787E-3 1.8038463E-3
-1.1139765E-2 -1.562812E-3
8.02787E-3 -1.4829967E-3
7.6493006E-3 -1.3599433E-3
6.0768332E-3 1.9834812E-3
-8.320952E-3 -1.1982095E-3
1.1040334E-2 1.6104365E-3
-1.0129915E-2 -2.1027275E-3
1.0861827E-2 1.7570833E-3
6.1179763E-3 3.886119E-3
8.537433E-3 -7.990764E-4
-2.6415882E-3 -1.784507E-4
-9.05885E-3 7.964724E-5
-7.25504E-3 -2.4128698E-3
-5.4006763E-3 -2.3470246E-3
8.654553E-3 1.2182279E-3
6.78134E-3 1.862701E-3
-1.7163082E-3 1.07103605E-2
-9.400938E-3 -1.0721075E-3
2.3166155E-3 -3.1205884E-3
-9.155082E-3 -7.5512886E-4
-1.070736E-2 -1.2942966E-3
-1.1134194E-2 -1.6009385E-3
-6.2374934E-3 -2.6081714E-3
1.0950333E-2 1.5461855E-3
-1.0045006E-2 -4.6180005E-4
1.0894349E-2 1.7228167E-3
8.263159E-3 -3.2077418E-4
4.8865923E-3 -4.2770766E-3
1.0964834E-2 1.4617556E-3
6.466869E-3 4.2141033E-3
-1.303371E-3 3.00614E-4
-7.2700004E-3 -2.281423E-3
1.03042675E-2 1.171232E-3
4.681481E-3 3.227113E-3
1.0913364E-2 1.3521772E-3
9.35056E-3 -5.398032E-4
-6.717336E-3 -3.4518111E-3
1.04513075E-2 2.0286508E-3
-1.0777352E-2 -1.0845952E-3
-5.4371534E-3 -7.5721956E-4
1.1156948E-2 1.5625112E-3
-3.5772512E-3 7.019591E-3
-4.05231E-3 -2.8286001E-3
-1.9028591E-3 8.659179E-3
-9.877858E-3 -1.5622497E-3
-1.1106168E-2 -1.5947499E-3
9.703557E-3 2.1074638E-3
9.746979E-3 2.1601783E-3
7.387616E-3 1.1870962E-3
-1.0266007E-2 -1.8185673E-3
8.364986E-3 3.7946753E-4
-1.3814273E-3 -4.1922234E-4
7.649715E-3 3.7587925E-3
7.384534E-3 2.1163668E-3
5.4976647E-4 7.574954E-3
-7.63944E-3 -2.8283733E-3
7.07774E-3 3.4168095E-3
-2.497751E-3 2.8570432E-3
-1.0842499E-2 -1.2890301E-3
8.67591E-3 2.1786152E-3
3.8020464E-3 5.5716783E-3
9.357413E-3 0
1.5331936E-3 -1.109284E-2
2.1142558E-4 -8.401359E-3
9.174683E-3 1.3729433E-3
-9.681022E-3 -4.2711632E-4
2.0565987E-3 -8.970937E-3
-2.3872594E-4 -1.4292455E-3
8.0739865E-3 -1.8652282E-3
1.6108508E-3 -9.78175E-3
1.0679343E-2 9.895387E-4
8.663397E-3 -5.681601E-4
-1.2762337E-3 1.9030765E-3
-9.233048E-3 -2.3558715E-3
-2.215404E-3 1.0227179E-2
1.6906667E-3 -9.237096E-3
1.8923199E-3 -1.0463311E-2
-1.6691675E-3 -1.0904385E-2
-3.831312E-4 4.8919343E-3
-1.2341203E-2 2.574014E-4
1.4783283E-4 -7.592536E-3
-1.3401218E-2 -1.12529924E-4
-6.7383368E-3 -7.6641346E-4
2.6469603E-3 -7.998E-3
4.7949704E-4 -1.1551146E-2
-5.5795797E-5 1.3496966E-2
8.942553E-4 -1.1694464E-2
-2.177881E-3 1.0382128E-2
-1.4984029E-3 8.639837E-3
-1.0767978E-3 1.04065575E-2
-7.967895E-5 1.2833269E-2
-2.661253E-4 1.1711822E-2
-1.4533529E-3 -8.792397E-3
-6.219501E-3 1.0217074E-3
2.6786415E-4 1.2893579E-2
4.6434663E-3 -5.521406E-3
1.8795849E-3 6.0658464E-3
2.6967697E-4 -1.3283505E-2
2.960137E-6 -1.3248682E-2
4.566555E-4 -1.2867885E-2
-4.788226E-4 1.2975295E-2
6.771446E-3 2.8078277E-3
4.435356E-3 1.5895227E-3
2.640093E-3 -8.511277E-3
-6.752983E-5 -1.3331451E-2
-1.12296725E-2 -1.2727756E-3
-8.0968306E-4 -1.2534598E-2
4.0902418E-5 -1.34929735E-2
-6.676303E-3 4.105909E-3
3.463994E-3 3.2018423E-3
2.0604378E-3 -8.909813E-3
4.0080766E-5 -1.081548E-2
-8.342049E-5 1.3449061E-2
1.5533181E-3 -1.0971295E-2
-1.8679928E-3 -9.156657E-3
-1.5470567E-3 6.983285E-3
-1.3423137E-3 1.0881449E-2
1.8680062E-3 9.8404195E-3
3.6616987E-4 -1.2827029E-2
1.5009E-3 -1.0768343E-2
-1.0194731E-3 8.3910385E-3
2.742304E-5 -1.3461811E-2
3.0733836E-3 9.273733E-3
2.8654814E-3 8.845117E-3
-1.3556608E-3 7.528832E-3
5.705856E-5 -1.006048E-2
-1.00171834E-4 1.335174E-2
8.329332E-4 -1.2353135E-2
-3.032638E-4 1.3164156E-2
-3.6044207E-3 7.889349E-3
2.3461145E-3 9.98986E-3
-2.2127287E-4 -3.1607363E-3
-1.5786934E-3 -1.0725855E-2
1.6716371E-3 -8.995904E-3
1.897414E-3 -6.7868405E-3
-2.6129377E-5 1.0459232E-2
-1.0970489E-3 8.344207E-3
-1.2977919E-2 -2.7974372E-4
-2.6938424E-4 -1.1320099E-2
4.078905E-3 2.234953E-3
-6.048664E-4 -1.0976709E-2
-2.2004294E-4 -1.2905215E-2
7.353345E-5 -1.3461453E-2
2.069882E-3 -7.821644E-3
-3.8750513E-5 1.3234522E-2
-1.0984084E-3 -1.1983619E-2
-2.573128E-4 1.3197096E-2
1.734167E-3 9.743086E-3
5.870962E-3 5.0920695E-3
6.371348E-5 1.3237879E-2
-3.936068E-3 8.356688E-3
-5.6992064E-4 -1.4958392E-3
1.5133605E-3 -8.992102E-3
2.9988494E-4 1.2407201E-2
-3.058562E-3 6.078465E-3
1.8518032E-4 1.3158907E-2
2.1719856E-3 1.099627E-2
2.991362E-3 -8.528706E-3
-6.924586E-4 1.2721998E-2
-4.8010322E-4 -1.295383E-2
6.7868486E-6 -6.5695974E-3
-2.4251087E-5 1.3482131E-2
-8.9075705E-3 -3.0905425E-3
2.6892298E-3 -5.2673114E-3
-1.0576891E-2 -8.3697395E-4
2.3351744E-4 -1.1965779E-2
7.0788374E-5 -1.3427216E-2
-9.084055E-4 1.1848483E-2
-9.637817E-4 1.1908595E-2
-1.9680907E-4 8.952227E-3
4.7377436E-4 -1.246791E-2
9.2074287E-4 9.978533E-3
2.706271E-4 -1.7063157E-3
-3.202508E-3 9.684302E-3
-1.2989272E-3 9.100831E-3
-8.889727E-3 1.8928671E-3
2.1012167E-3 -9.519675E-3
-2.8908176E-3 8.950215E-3
-3.796162E-3 -2.4928632E-3
-2.4842832E-4 -1.3064554E-2
-1.1611307E-3 1.0641906E-2
-5.982044E-3 5.4200822E-3
1.5331936E-3 1.109284E-2
1.34013295E-2 0
9.9941185E-3 -1.1259095E-3
-1.24316E-4 1.1101174E-2
-1.0798865E-3 -1.1546447E-2
1.0971657E-2 9.681457E-4
1.6551985E-3 -5.17179E-4
3.5340595E-3 9.265775E-3
1.1859807E-2 3.0687932E-4
5.767303E-4 1.2822067E-2
2.093011E-3 1.0177021E-2
-2.4651298E-3 -1.2011088E-3
1.2799748E-3 -1.1331414E-2
-1.2486902E-2 -9.5056987E-4
1.122722E-2 4.9073796E-4
1.27138905E-2 5.2887696E-4
-3.286618E-4 -8.272243E-3
-6.9671706E-4 3.6159994E-3
-9.225148E-3 -8.448847E-4
7.48132E-4 -5.6497576E-3
-9.984581E-3 -1.2098195E-3
-4.960763E-3 -1.1376771E-3
2.6459359E-3 -5.7421704E-3
1.3280542E-3 -8.574048E-3
-1.1755545E-3 1.0060752E-2
1.6494032E-3 -8.646081E-3
-2.4964192E-3 7.559557E-3
-1.8433165E-3 6.3173193E-3
-1.6773327E-3 7.670283E-3
-1.1376053E-3 9.56379E-3
-1.1824305E-3 8.7118E-3
-3.45155E-4 -6.6790828E-3
-4.7240667E-3 2.3941434E-4
-8.834901E-4 9.637965E-3
3.926771E-3 -3.7275003E-3
8.920906E-4 4.6815528E-3
1.3171239E-3 -9.883592E-3
1.1152923E-3 -9.880031E-3
1.4216459E-3 -9.557934E-3
-1.4472008E-3 9.636173E-3
4.8139454E-3 2.6628552E-3
3.1741483E-3 1.558031E-3
2.6839373E-3 -6.1255265E-3
1.0696782E-3 -9.94768E-3
-8.267661E-3 -1.8926376E-3
4.4926553E-4 -9.415773E-3
1.1641124E-3 -1.0059025E-2
-5.323848E-3 2.5010966E-3
2.3142914E-3 2.6788185E-3
2.2851392E-3 -6.4714365E-3
9.3855045E-4 -8.062338E-3
-1.192131E-3 1.0022705E-2
2.0801465E-3 -8.051404E-3
-6.237719E-4 -6.9855684E-3
-1.7404256E-3 5.0778487E-3
-1.9152405E-3 8.002128E-3
5.663357E-4 7.4954894E-3
1.3507331E-3 -9.535067E-3
2.0240045E-3 -7.904456E-3
-1.4652491E-3 6.1720135E-3
1.1514416E-3 -1.0036918E-2
1.5128627E-3 7.174149E-3
1.3938285E-3 6.837039E-3
-1.6435249E-3 5.500774E-3
8.877805E-4 -7.497867E-3
-1.1964474E-3 9.94872E-3
1.6590102E-3 -9.142443E-3
-1.3321438E-3 9.791765E-3
-3.3508388E-3 5.5807023E-3
9.103328E-4 7.6471027E-3
1.00532954E-4 -2.3757273E-3
-2.761896E-4 -8.131501E-3
2.0024213E-3 -6.5683043E-3
1.985202E-3 -4.9019144E-3
-8.98216E-4 7.797837E-3
-1.5191672E-3 6.1305715E-3
-9.6548535E-3 -1.2989574E-3
7.501603E-4 -8.4646605E-3
2.854098E-3 2.0094172E-3
4.711228E-4 -8.236762E-3
9.201306E-4 -9.642624E-3
1.1857986E-3 -1.0032777E-2
2.2007597E-3 -5.6591346E-3
-1.1407939E-3 9.866465E-3
1.8765626E-4 -9.029134E-3
-1.3006433E-3 9.820191E-3
4.7470193E-4 7.411658E-3
3.9504943E-3 4.2906874E-3
-1.0646621E-3 9.8775765E-3
-3.6374303E-3 5.9013595E-3
-2.9934893E-4 -1.1634125E-3
1.8840662E-3 -6.5787667E-3
-8.187472E-4 9.277936E-3
-2.791621E-3 4.2760856E-3
-9.6744276E-4 9.828889E-3
6.9592166E-4 8.38301E-3
2.9473621E-3 -6.109012E-3
-1.5852406E-3 9.429325E-3
7.302728E-4 -9.700728E-3
5.570042E-4 -4.898744E-3
-1.1507834E-3 1.0052339E-2
-6.38322E-3 -3.053157E-3
2.44804E-3 -3.7021926E-3
-7.817457E-3 -1.5127928E-3
1.1794489E-3 -8.903928E-3
1.1808755E-3 -1.0007475E-2
-1.6728961E-3 8.759754E-3
-1.7192436E-3 8.799931E-3
-8.9889084E-4 6.6596395E-3
1.4008082E-3 -9.258211E-3
-1.5169472E-4 7.5189034E-3
3.4517742E-4 -1.249758E-3
-3.2019129E-3 6.9530653E-3
-1.7332864E-3 6.6778683E-3
-6.7885937E-3 6.6474814E-4
2.3667873E-3 -6.9228183E-3
-2.9077937E-3 6.431802E-3
-2.621572E-3 -2.1780005E-3
9.123483E-4 -9.763838E-3
-1.759997E-3 7.838711E-3
-4.9165105E-3 3.5394772E-3
2.1142558E-4 8.401359E-3
9.9941185E-3 1.1259095E-3
7.547763E-3 0
-1.0253717E-3 8.268319E-3
1.6473989E-4 -8.701555E-3
8.1008375E-3 1.6437812E-3
1.2778245E-3 -2.4662813E-4
1.8570833E-3 7.2069173E-3
8.818737E-3 1.225256E-3
-6.47143E-4 9.610584E-3
7.0585526E-4 7.7654147E-3
-1.7374738E-3 -1.102841E-3
1.9065547E-3 -8.34293E-3
-9.232316E-3 -1.757977E-3
8.3315335E-3 1.3092229E-3
9.437023E-3 1.462567E-3
-9.017312E-3 1.4838307E-3
4.0558544E-3 2.7199253E-4
3.2770395E-4 1.0220616E-2
-6.2907524E-3 -5.2028034E-5
3.1099124E-5 1.1102124E-2
-5.7236163E-4 5.588902E-3
-6.649806E-3 -2.1184532E-3
-9.572998E-3 -2.9004505E-4
1.1180913E-2 -7.8983736E-5
-9.6955625E-3 -6.3228584E-4
8.6203795E-3 1.7077689E-3
7.1708257E-3 1.1610755E-3
8.630402E-3 7.95445E-4
1.0631353E-2 -5.3043408E-5
9.704116E-3 1.1180544E-4
-7.2698193E-3 1.2854664E-3
9.040399E-4 5.142531E-3
1.0678087E-2 -3.4149474E-4
-4.6168067E-3 -3.7952603E-3
5.0072907E-3 -1.6132488E-3
-1.1006073E-2 -1.0016777E-4
-1.0974754E-2 1.20448014E-4
-1.0663524E-2 -2.5890933E-4
1.0752705E-2 2.7627498E-4
2.263088E-3 -5.6352657E-3
1.2755587E-3 -3.6888318E-3
-7.0749223E-3 -2.108003E-3
-1.1042663E-2 1.7960685E-4
-9.501499E-4 9.314058E-3
-1.0375693E-2 7.8698783E-4
-1.1177467E-2 9.12841E-5
3.4631174E-3 5.492319E-3
2.6201562E-3 -2.899148E-3
-7.399678E-3 -1.6241407E-3
-8.959522E-3 6.712693E-5
1.11414865E-2 -5.5656346E-5
-9.102631E-3 -1.1849382E-3
-7.5677135E-3 1.6323179E-3
5.79905E-3 1.2167459E-3
9.026248E-3 1.0109834E-3
8.134117E-3 -1.6386716E-3
-1.0628842E-2 -1.8433348E-4
-8.934026E-3 -1.1434E-3
6.960287E-3 7.666561E-4
-1.1151528E-2 1.0216111E-4
7.653513E-3 -2.6319057E-3
7.3003913E-3 -2.4557111E-3
6.249186E-3 1.0531398E-3
-8.334265E-3 4.605999E-5
1.1061026E-2 -4.087721E-5
-1.0240615E-2 -5.753789E-4
1.0907521E-2 1.2909669E-4
6.5686856E-3 2.9125859E-3
8.253472E-3 -2.0361056E-3
-2.6161862E-3 2.1261456E-4
-8.870264E-3 1.4072295E-3
-7.467386E-3 -1.3012737E-3
-5.639573E-3 -1.5087912E-3
8.664289E-3 -7.537962E-5
6.9222143E-3 8.3135127E-4
-1.11341564E-4 1.0753031E-2
-9.3746595E-3 3.2815768E-4
1.8135163E-3 -3.3995493E-3
-9.087096E-3 6.028739E-4
-1.0688169E-2 3.0198926E-4
-1.115166E-2 6.396148E-5
-6.498366E-3 -1.6420584E-3
1.0963355E-2 -9.066898E-5
-9.9166045E-3 1.0210464E-3
1.0934381E-2 9.072712E-5
8.0547305E-3 -1.5269015E-3
4.1636233E-3 -4.9105273E-3
1.0965185E-2 -1.7557747E-4
6.958889E-3 3.1829756E-3
-1.233812E-3 4.8597748E-4
-7.4627683E-3 -1.1701983E-3
1.0274892E-2 -3.6350774E-4
5.0635515E-3 2.4772154E-3
1.0898643E-2 -2.7546388E-4
9.088761E-3 -1.9011999E-3
-7.0926184E-3 -2.39882E-3
1.05448635E-2 4.5559317E-4
-1.0726028E-2 5.17865E-4
-5.442078E-3 5.5320328E-5
1.1168331E-2 -1.0497651E-4
-2.4774626E-3 7.4073756E-3
-4.3881955E-3 -2.1787982E-3
-5.952034E-4 8.769276E-3
-9.914181E-3 -8.2437844E-5
-1.11232735E-2 6.5917426E-5
9.8232785E-3 6.42579E-4
9.873588E-3 6.8789296E-4
7.417525E-3 7.998509E-5
-1.0332357E-2 -2.7680025E-4
8.257311E-3 -8.552747E-4
-1.4159603E-3 -2.0834916E-4
8.051831E-3 2.5630058E-3
7.5508473E-3 9.915609E-4
1.6504473E-3 7.346368E-3
-7.905244E-3 -1.6522632E-3
7.4408483E-3 2.3116223E-3
-2.0297824E-3 3.167727E-3
-1.0819896E-2 3.269807E-4
8.826138E-3 8.6312E-4
4.545291E-3 4.9050287E-3
9.174683E-3 -1.3729433E-3
-1.24316E-4 -1.1101174E-2
-1.0253717E-3 -8.268319E-3
9.196962E-3 0
-9.554639E-3 1.001648E-3
7.0019945E-4 -9.097503E-3
-4.4376653E-4 -1.3663087E-3
7.6426477E-3 -3.0134397E-3
1.4419173E-4 -9.82708E-3
1.0615985E-2 -5.966849E-4
8.410858E-3 -1.8281803E-3
-9.7208726E-4 2.0531656E-3
-9.398405E-3 -9.5517E-4
-6.71584E-4 1.0352513E-2
3.0236127E-4 -9.304773E-3
3.2016315E-4 -1.0536631E-2
9.529608E-3 -5.594557E-4
-4.1839667E-3 -7.2429684E-4
7.726868E-4 -1.0653795E-2
6.5297387E-3 7.391819E-4
1.1768324E-3 -1.1537283E-2
1.203313E-3 -5.7439227E-3
6.6777E-3 2.9250772E-3
9.91371E-3 1.3439273E-3
-1.162435E-2 -1.1356664E-3
1.0003768E-2 1.7128272E-3
-8.769639E-3 -2.7130377E-3
-7.323252E-3 -1.9872112E-3
-8.879413E-3 -1.766324E-3
-1.1050591E-2 -1.1027626E-3
-1.0069341E-2 -1.1730358E-3
7.692549E-3 -5.436972E-4
-3.7912154E-4 -5.4409876E-3
-1.1130559E-2 -8.081832E-4
4.383013E-3 4.445681E-3
-5.3777285E-3 1.1306416E-3
1.1423199E-2 1.3027437E-3
1.1414689E-2 1.0701369E-3
1.105004E-2 1.4303515E-3
-1.1140796E-2 -1.458105E-3
-2.9648424E-3 5.607951E-3
-1.7269198E-3 3.693372E-3
7.1204877E-3 2.96052E-3
1.1491681E-2 1.0160734E-3
2.0015035E-3 -9.572809E-3
1.0864924E-2 3.1243043E-4
1.1622109E-2 1.1225123E-3
-2.9996282E-3 -6.0830903E-3
-3.0378047E-3 2.726535E-3
7.5105713E-3 2.49321E-3
9.3152765E-3 9.060507E-4
-1.1580849E-2 -1.1556072E-3
9.327587E-3 2.2223962E-3
8.039805E-3 -8.7159424E-4
-5.892063E-3 -1.8956453E-3
-9.267179E-3 -2.0333568E-3
-8.628929E-3 8.165079E-4
1.102213E-2 1.3490976E-3
9.15695E-3 2.1608796E-3
-7.147481E-3 -1.5545222E-3
1.1596347E-2 1.1083877E-3
-8.237808E-3 1.9007128E-3
-7.851763E-3 1.7561243E-3
-6.3775238E-3 -1.7747013E-3
8.6634075E-3 8.598403E-4
-1.149565E-2 -1.1621979E-3
1.0576216E-2 1.7130692E-3
-1.1317664E-2 -1.3220644E-3
-6.5069357E-3 -3.7412597E-3
-8.79621E-3 1.2163996E-3
2.741088E-3 6.404747E-5
9.368498E-3 -4.958902E-4
7.6160757E-3 2.1651601E-3
5.6945775E-3 2.1816797E-3
-9.00946E-3 -8.653235E-4
-7.100882E-3 -1.6175869E-3
1.2867923E-3 -1.1159098E-2
9.774988E-3 6.800814E-4
-2.2542928E-3 3.3342494E-3
9.50616E-3 3.633626E-4
1.113673E-2 8.5032324E-4
1.1592323E-2 1.1480871E-3
6.5722554E-3 2.4136615E-3
-1.1399605E-2 -1.0998326E-3
1.0413473E-2 1.9269552E-5
-1.1349746E-2 -1.2851275E-3
-8.5342815E-3 7.090372E-4
-4.8603597E-3 4.648038E-3
-1.1410752E-2 -1.0118209E-3
-6.882865E-3 -4.0646624E-3
1.3347241E-3 -3.7050215E-4
7.625554E-3 2.0284844E-3
-1.0714081E-2 -7.414015E-4
-4.9906815E-3 -3.1250317E-3
-1.1352501E-2 -9.008025E-4
-9.649292E-3 9.852751E-4
7.107199E-3 3.2645748E-3
-1.0905343E-2 -1.6217611E-3
1.1199573E-2 6.30175E-4
5.65975E-3 5.352292E-4
-1.161411E-2 -1.107292E-3
3.3805564E-3 -7.425633E-3
4.3215617E-3 2.7414556E-3
1.5734199E-3 -9.045496E-3
1.0290774E-2 1.1654053E-3
1.1563045E-2 1.1429633E-3
-1.013533E-2 -1.7374305E-3
-1.018266E-2 -1.789986E-3
-7.697288E-3 -8.909443E-4
1.0704045E-2 1.4128704E-3
-8.671594E-3 -1.0773338E-5
1.4483368E-3 3.7066542E-4
-8.085835E-3 -3.539614E-3
-7.736514E-3 -1.8524926E-3
-9.145358E-4 -7.8118253E-3
8.032736E-3 2.5774874E-3
-7.4784695E-3 -3.2119122E-3
2.4537223E-3 -3.0698574E-3
1.1276303E-2 8.3870586E-4
-9.075392E-3 -1.8579492E-3
-4.1878507E-3 -5.5908207E-3
-9.681022E-3 4.2711632E-4
-1.0798865E-3 1.1546447E-2
1.6473989E-4 8.701555E-3
-9.554639E-3 -1.001648E-3
1.0035317E-2 0
-1.7182467E-3 9.375053E-3
3.122193E-4 1.4677766E-3
-8.268072E-3 2.298268E-3
-1.220074E-3 1.0193558E-2
-1.10938335E-2 -5.363048E-4
-8.937072E-3 9.832468E-4
1.2335046E-3 -2.0271442E-3
9.659888E-3 2.015905E-3
1.8252027E-3 -1.0681989E-2
-1.3275107E-3 9.6337125E-3
-1.4801676E-3 1.0911539E-2
-2.1543065E-3 -8.806826E-3
3.9736413E-5 4.032701E-3
-1.0085138E-2 1.1022938E-3
-4.2747348E-4 -6.226683E-3
-1.0979695E-2 8.760099E-4
-5.5720382E-3 -1.406679E-4
1.5892689E-3 -6.7391787E-3
-4.4191987E-4 -9.4915535E-3
9.2937483E-4 1.1053986E-2
-1.1271125E-4 -9.638851E-3
-1.0329983E-3 8.657176E-3
-6.0257775E-4 7.181675E-3
-1.2977768E-4 8.597631E-3
8.618743E-4 1.0512343E-2
6.2821456E-4 9.607685E-3
-1.8250433E-3 -7.0933336E-3
-5.0180894E-3 1.2857834E-3
1.1507648E-3 1.0536612E-2
3.402722E-3 -4.8558265E-3
1.9770267E-3 4.8303176E-3
-7.388495E-4 -1.0894677E-2
-9.5469475E-4 -1.0846899E-2
-5.557447E-4 -1.05679175E-2
5.4535636E-4 1.0657455E-2
5.7466216E-3 1.8095798E-3
3.7460527E-3 9.809198E-4
1.546566E-3 -7.1589015E-3
-1.0183839E-3 -1.0909569E-2
-9.285673E-3 -2.3076059E-4
-1.5684172E-3 -1.0203571E-2
-9.4127964E-4 -1.1049641E-2
-5.1692626E-3 3.843817E-3
3.067278E-3 2.371098E-3
1.0432114E-3 -7.4433074E-3
-7.4852316E-4 -8.85752E-3
9.032975E-4 1.1016761E-2
4.7910676E-4 -9.094406E-3
-2.190824E-3 -7.3615992E-3
-7.620842E-4 5.828973E-3
-3.12848E-4 9.005606E-3
2.2402313E-3 7.921394E-3
-6.2687416E-4 -1.0527932E-2
4.5085352E-4 -8.924462E-3
-2.2845216E-4 6.943385E-3
-9.500637E-4 -1.1023154E-2
3.1861342E-3 7.3703686E-3
2.9849606E-3 7.0344796E-3
-5.659769E-4 6.2617846E-3
-6.800806E-4 -8.240629E-3
8.825526E-4 1.0938296E-2
-2.1049984E-4 -1.0173676E-2
7.0272986E-4 1.0799393E-2
-2.3809897E-3 6.719396E-3
2.6424543E-3 8.0092E-3
-4.0949546E-4 -2.571707E-3
-2.0673375E-3 -8.6672E-3
7.1868126E-4 -7.485702E-3
1.0631128E-3 -5.6934548E-3
7.342091E-4 8.564851E-3
-2.9534675E-4 6.910649E-3
-1.064522E-2 7.085314E-4
-1.0383369E-3 -9.248295E-3
3.5008553E-3 1.5350836E-3
-1.2881889E-3 -8.942926E-3
-1.1124536E-3 -1.0549592E-2
-9.122873E-4 -1.1026192E-2
1.1295557E-3 -6.5531065E-3
9.2437014E-4 1.0837892E-2
-1.764993E-3 -9.731627E-3
7.427293E-4 1.0823039E-2
2.1236262E-3 7.851376E-3
5.174415E-3 3.7447398E-3
1.0085001E-3 1.0833237E-2
-2.6187475E-3 7.125964E-3
-5.746567E-4 -1.1834699E-3
5.8937503E-4 -7.471155E-3
1.1418428E-3 1.01361E-2
-2.0649189E-3 5.1973923E-3
1.1022398E-3 1.0759809E-2
2.5726012E-3 8.845727E-3
1.8328903E-3 -7.1985475E-3
3.5215385E-4 1.0465514E-2
-1.3288775E-3 -1.0570605E-2
-4.6904795E-4 -5.379014E-3
9.5412845E-4 1.1039561E-2
-7.515889E-3 -1.8867194E-3
1.8211461E-3 -4.5066206E-3
-8.719756E-3 7.8871126E-5
-6.7325775E-4 -9.813243E-3
-9.1206125E-4 -1.0997964E-2
1.1225306E-4 9.765969E-3
7.125957E-5 9.8191835E-3
4.8560393E-4 7.3433993E-3
-5.128343E-4 -1.0241693E-2
1.4746856E-3 8.102899E-3
9.829369E-5 -1.4165101E-3
-1.9222721E-3 8.159887E-3
-4.0596363E-4 7.5446814E-3
-7.141267E-3 2.1919052E-3
1.0325392E-3 -7.945547E-3
-1.7201242E-3 7.536373E-3
-3.2880052E-3 -1.7666606E-3
-1.1472041E-3 -1.0677992E-2
-1.8181851E-4 8.796403E-3
-4.505934E-3 4.8695747E-3
2.0565987E-3 8.970937E-3
1.0971657E-2 -9.681457E-4
8.1008375E-3 -1.6437812E-3
7.0019945E-4 9.097503E-3
-1.7182467E-3 -9.375053E-3
9.052428E-3 0
1.3177474E-3 -5.4298976E-4
3.562715E-3 7.330572E-3
9.731784E-3 -6.055405E-4
1.3984669E-3 1.0455752E-2
2.4487602E-3 8.180714E-3
-2.1049709E-3 -8.052596E-4
2.293047E-4 -9.369489E-3
-1.0291688E-2 1.2385455E-4
9.227168E-3 -4.0931566E-4
1.0447059E-2 -4.8549214E-4
2.1465903E-4 -1.4112168E-3
-2.3610823E-4 5.894173E-4
-1.5341957E-3 -4.4447533E-4
3.1126713E-4 -9.320493E-4
-1.650842E-3 -5.310733E-4
-8.0267503E-4 -3.5470314E-4
6.3558196E-4 -8.8568265E-4
5.050002E-4 -1.4081778E-3
-5.277611E-4 1.6648573E-3
5.6175777E-4 -1.4098727E-3
-6.696533E-4 1.1982489E-3
-5.1849306E-4 1.0092807E-3
-5.346013E-4 1.2437588E-3
-5.050978E-4 1.5819625E-3
-4.8484738E-4 1.4362574E-3
1.5980918E-4 -1.1420364E-3
-8.0760004E-4 -1.13829505E-4
-4.6450025E-4 1.6028237E-3
7.865947E-4 -5.027501E-4
-1.9432632E-6 8.217291E-4
5.459398E-4 -1.6302388E-3
5.1165366E-4 -1.6362309E-3
5.529941E-4 -1.5716898E-3
-5.598771E-4 1.5841005E-3
7.279828E-4 6.08116E-4
4.8646858E-4 3.6748956E-4
6.5454195E-4 -9.4934244E-4
5.0614175E-4 -1.649174E-3
-1.3378587E-3 -5.9057184E-4
3.8372655E-4 -1.5793955E-3
5.2576757E-4 -1.6649389E-3
-9.83044E-4 2.494715E-4
3.0427374E-4 5.2914076E-4
5.983289E-4 -1.0209355E-3
4.2233727E-4 -1.3342734E-3
-5.2932434E-4 1.6578744E-3
6.152505E-4 -1.2951199E-3
1.2265446E-4 -1.2030279E-3
-4.6057338E-4 8.028022E-4
-5.85722E-4 1.2921661E-3
-1.4904031E-4 1.2874799E-3
5.4024154E-4 -1.5701357E-3
6.009441E-4 -1.2720762E-3
-4.4973896E-4 9.970341E-4
5.2290014E-4 -1.6616103E-3
2.1705282E-5 1.2640058E-3
1.2568233E-5 1.2030441E-3
-4.579876E-4 8.775691E-4
3.9529754E-4 -1.2403681E-3
-5.276376E-4 1.6452081E-3
5.796032E-4 -1.4935919E-3
-5.4548227E-4 1.6142018E-3
-7.496449E-4 8.353133E-4
-9.575622E-5 1.3243881E-3
9.464852E-5 -3.9892187E-4
2.1894372E-4 -1.385675E-3
5.5363047E-4 -1.046573E-3
4.9626484E-4 -7.650186E-4
-4.068659E-4 1.2908116E-3
-4.5751303E-4 9.882564E-4
-1.5921071E-3 -5.3539005E-4
4.0358934E-4 -1.4085418E-3
4.1753528E-4 4.3345068E-4
3.4890196E-4 -1.3790766E-3
4.7085565E-4 -1.6024152E-3
5.2858144E-4 -1.6597866E-3
5.575011E-4 -8.8617124E-4
-5.155278E-4 1.6331007E-3
3.268028E-4 -1.5224866E-3
-5.4107804E-4 1.6200435E-3
-1.6181447E-4 1.2702931E-3
5.286115E-4 8.5549155E-4
-5.03002E-4 1.6374696E-3
-8.086421E-4 8.802354E-4
-1.2664041E-5 -2.067453E-4
5.33935E-4 -1.0522117E-3
-4.4177522E-4 1.5439868E-3
-6.123409E-4 6.3271646E-4
-4.8495198E-4 1.6324035E-3
-1.5610189E-4 1.4419701E-3
6.985998E-4 -9.3793916E-4
-5.7648815E-4 1.5445711E-3
4.406117E-4 -1.6184559E-3
2.543696E-4 -8.111492E-4
-5.232926E-4 1.6642424E-3
-9.809051E-4 -7.254706E-4
5.354209E-4 -5.467841E-4
-1.2740518E-3 -5.115541E-4
4.9062056E-4 -1.4688817E-3
5.269211E-4 -1.6556638E-3
-5.6944933E-4 1.4283496E-3
-5.786088E-4 1.4336371E-3
-3.6978888E-4 1.0980947E-3
5.3967274E-4 -1.5216281E-3
-2.7136673E-4 1.2679817E-3
9.927465E-5 -2.0030315E-4
-7.6927466E-4 1.0725185E-3
-5.116464E-4 1.0739162E-3
-1.1710193E-3 -1.0928088E-4
6.26901E-4 -1.094686E-3
-7.024483E-4 9.938799E-4
-3.726604E-4 -4.5439368E-4
4.7349892E-4 -1.6231906E-3
-5.5409974E-4 1.2695723E-3
-9.480121E-4 4.3857773E-4
-2.3872594E-4 1.4292455E-3
1.6551985E-3 5.17179E-4
1.2778245E-3 2.4662813E-4
-4.4376653E-4 1.3663087E-3
3.122193E-4 -1.4677766E-3
1.3177474E-3 5.4298976E-4
2.2439238E-4 0
7.891056E-5 1.2808011E-3
1.4529623E-3 4.955919E-4
-4.235924E-4 1.6059108E-3
-1.3423989E-4 1.3377367E-3
-2.5811547E-4 -2.4348231E-4
5.9538736E-4 -1.3501471E-3
-1.5055736E-3 -5.992947E-4
1.3677358E-3 4.9388775E-4
1.5498826E-3 5.559713E-4
-7.979546E-3 -1.7215172E-3
3.281283E-3 1.55495E-3
-3.0765252E-3 8.6006755E-3
-5.210549E-3 -2.104438E-3
-3.6118347E-3 9.236023E-3
-2.3068683E-3 4.456823E-3
-4.8318454E-3 -3.9392766E-3
-7.860096E-3 -3.3776767E-3
9.317184E-3 3.5978581E-3
-7.849812E-3 -3.7022373E-3
6.603949E-3 4.24367E-3
5.5785016E-3 3.314415E-3
6.911206E-3 3.4888156E-3
8.852002E-3 3.4393475E-3
8.027458E-3 3.2725218E-3
-6.462388E-3 -1.3137815E-3
-9.337266E-4 4.5696413E-3
8.985351E-3 3.2149581E-3
-2.5930125E-3 -4.666574E-3
4.6896343E-3 3.000637E-4
-9.1131935E-3 -3.689445E-3
-9.159453E-3 -3.4958518E-3
-8.776523E-3 -3.7091207E-3
8.844942E-3 3.7527715E-3
3.7270477E-3 -3.9413744E-3
2.2686534E-3 -2.647464E-3
-5.1885396E-3 -4.069885E-3
-9.235269E-3 -3.4689421E-3
-3.8413792E-3 7.428633E-3
-8.880032E-3 -2.745674E-3
-9.318352E-3 -3.5865074E-3
1.0782488E-3 5.6988113E-3
3.1272653E-3 -1.5506735E-3
-5.616951E-3 -3.774205E-3
-7.46733E-3 -2.8798587E-3
9.2767775E-3 3.6043248E-3
-7.176007E-3 -3.9672116E-3
-6.823586E-3 -1.1231555E-3
4.420319E-3 2.9112059E-3
7.1695307E-3 3.7976285E-3
7.2963475E-3 1.3034608E-3
-8.772138E-3 -3.6357841E-3
-7.049508E-3 -3.8774493E-3
5.5327783E-3 2.9176685E-3
-9.3003595E-3 -3.5689697E-3
7.2224056E-3 3.206134E-4
6.871232E-3 3.5132834E-4
4.8479876E-3 2.9227394E-3
-6.9408407E-3 -2.6924962E-3
9.205073E-3 3.5902425E-3
-8.321394E-3 -3.8335372E-3
9.021818E-3 3.6811936E-3
4.5042317E-3 4.5726197E-3
7.5257528E-3 1.0123015E-3
-2.2437074E-3 -6.80527E-4
-7.83225E-3 -1.7369918E-3
-5.779005E-3 -3.5280886E-3
-4.1921036E-3 -3.101641E-3
7.224697E-3 2.776266E-3
5.479942E-3 2.9589555E-3
-3.615819E-3 8.899254E-3
-7.897836E-3 -2.7989652E-3
2.6209091E-3 -2.2308058E-3
-7.7488846E-3 -2.4764556E-3
-8.980785E-3 -3.2510904E-3
-9.287952E-3 -3.6007564E-3
-4.8620924E-3 -3.493774E-3
9.140224E-3 3.5168638E-3
-8.575221E-3 -2.4007482E-3
9.05671E-3 3.6581096E-3
7.193756E-3 1.3703301E-3
5.0689224E-3 -2.7163972E-3
9.1695655E-3 3.4469045E-3
4.7398945E-3 4.9251644E-3
-1.1845275E-3 -4.2007437E-7
-5.818116E-3 -3.4176523E-3
8.65751E-3 3.064556E-3
3.3961216E-3 3.7176616E-3
9.146997E-3 3.342096E-3
8.175673E-3 1.3980957E-3
-5.107957E-3 -4.3173507E-3
8.613473E-3 3.8336844E-3
-9.082979E-3 -3.084103E-3
-4.540477E-3 -1.7371586E-3
9.315247E-3 3.5721352E-3
-4.485835E-3 5.3437515E-3
-2.932681E-3 -3.2483935E-3
-3.367918E-3 7.09222E-3
-8.211643E-3 -3.3169466E-3
-9.265005E-3 -3.5898301E-3
7.95257E-3 3.7526372E-3
7.97953E-3 3.806777E-3
6.1377333E-3 2.496864E-3
-8.495463E-3 -3.615479E-3
7.1420376E-3 1.9948268E-3
-1.1083919E-3 -6.370854E-4
5.851263E-3 4.768081E-3
5.9498404E-3 3.2980647E-3
-1.0355649E-3 6.645588E-3
-6.02786E-3 -3.963226E-3
5.425906E-3 4.35899E-3
-2.7246678E-3 1.9673016E-3
-9.098439E-3 -3.2734838E-3
7.0516896E-3 3.6091874E-3
2.1699609E-3 5.565356E-3
8.0739865E-3 1.8652282E-3
3.5340595E-3 -9.265775E-3
1.8570833E-3 -7.2069173E-3
7.6426477E-3 3.0134397E-3
-8.268072E-3 -2.298268E-3
3.562715E-3 -7.330572E-3
7.891056E-5 -1.2808011E-3
7.338389E-3 0
3.3397244E-3 -8.119028E-3
9.0173585E-3 2.9825475E-3
7.588412E-3 1.2366556E-3
-1.4805336E-3 1.3876643E-3
-7.497079E-3 -3.8731874E-3
-3.9501474E-3 8.382859E-3
3.3000263E-3 -7.6331673E-3
3.7184446E-3 -8.651004E-3
-1.7268686E-3 -9.611858E-3
-2.2703937E-4 4.3380004E-3
-1.0915731E-2 5.1039614E-4
-4.3034805E-5 -6.7225713E-3
-1.1862285E-2 2.072909E-4
-5.9807925E-3 -5.2395277E-4
2.1593396E-3 -7.1386225E-3
1.5983032E-4 -1.0233427E-2
2.5969112E-4 1.1945721E-2
5.235979E-4 -1.0369755E-2
-1.6896226E-3 9.237769E-3
-1.1282004E-3 7.6803295E-3
-7.14635E-4 9.234175E-3
2.233576E-4 1.1358915E-2
3.2677373E-5 1.0370734E-2
-1.4875158E-3 -7.747748E-3
-5.480691E-3 1.0466044E-3
5.3230464E-4 1.1404329E-2
3.982905E-3 -4.9926243E-3
1.8022837E-3 5.3250664E-3
-6.5524284E-5 -1.1761712E-2
-3.007639E-4 -1.1724787E-2
1.09463675E-4 -1.1398182E-2
-1.2662116E-4 1.1493743E-2
6.0568396E-3 2.32979E-3
3.9615664E-3 1.3051179E-3
2.1415083E-3 -7.5927014E-3
-3.6504088E-4 -1.1796421E-2
-9.967097E-3 -8.6922076E-4
-1.0035787E-3 -1.1074233E-2
-2.7278063E-4 -1.1941846E-2
-5.8143227E-3 3.7864977E-3
3.1388588E-3 2.7542196E-3
1.6194033E-3 -7.932121E-3
-2.1219518E-4 -9.57232E-3
2.341476E-4 1.1903959E-2
1.1234104E-3 -9.744864E-3
-1.8628018E-3 -8.060615E-3
-1.2091915E-3 6.215441E-3
-9.3873503E-4 9.660521E-3
1.8784713E-3 8.665725E-3
3.0321788E-5 -1.1359952E-2
1.0816697E-3 -9.564056E-3
-7.10058E-4 7.4491827E-3
-2.8399547E-4 -1.191396E-2
2.9322207E-3 8.136621E-3
2.7384178E-3 7.762068E-3
-1.0273188E-3 6.6938526E-3
-1.7988127E-4 -8.904556E-3
2.1709419E-4 1.1818217E-2
4.5424624E-4 -1.0951259E-2
3.3068074E-5 1.1656861E-2
-3.0091535E-3 7.064395E-3
2.3050064E-3 8.787026E-3
-2.6819864E-4 -2.7920974E-3
-1.6427133E-3 -9.455936E-3
1.2733538E-3 -7.999406E-3
1.5237463E-3 -6.0496167E-3
2.1638394E-4 9.256731E-3
-7.7978265E-4 7.409516E-3
-1.1491506E-2 4.961817E-5
-4.976185E-4 -1.0011808E-2
3.6608977E-3 1.8844685E-3
-7.8664796E-4 -9.700236E-3
-4.902505E-4 -1.1415721E-2
-2.4318088E-4 -1.1914698E-2
1.6526798E-3 -6.9693383E-3
2.6876628E-4 1.1713075E-2
-1.2464762E-3 -1.058002E-2
7.448763E-5 1.1684959E-2
1.7577985E-3 8.582653E-3
5.312244E-3 4.371901E-3
3.5952064E-4 1.17136985E-2
-3.2919508E-3 7.4855713E-3
-5.3861755E-4 -1.3107258E-3
1.1333708E-3 -7.992417E-3
5.495044E-4 1.0973165E-2
-2.5675518E-3 5.4493123E-3
4.6520782E-4 1.1641031E-2
2.1739528E-3 9.68166E-3
2.4519728E-3 -7.6161693E-3
-3.2148365E-4 1.1274475E-2
-7.215099E-4 -1.14527885E-2
-1.444322E-4 -5.814068E-3
2.8726825E-4 1.193187E-2
-7.953726E-3 -2.5310689E-3
2.2592773E-3 -4.723007E-3
-9.379423E-3 -4.9849704E-4
-6.735013E-5 -1.0594732E-2
-2.4482622E-4 -1.1884337E-2
-5.3259375E-4 1.0506382E-2
-5.8022345E-4 1.056085E-2
3.082795E-5 7.926982E-3
1.337725E-4 -1.1044606E-2
1.0433322E-3 8.809642E-3
2.0042436E-4 -1.5162396E-3
-2.6123691E-3 8.643676E-3
-9.4111334E-4 8.08373E-3
-7.823818E-3 1.8787027E-3
1.6415262E-3 -8.472767E-3
-2.3533416E-3 7.986891E-3
-3.4165834E-3 -2.1191863E-3
-5.190196E-4 -1.15560815E-2
-7.838781E-4 9.444383E-3
-5.169829E-3 4.9336073E-3
1.6108508E-3 9.78175E-3
1.1859807E-2 -3.0687932E-4
8.818737E-3 -1.225256E-3
1.4419173E-4 9.82708E-3
-1.220074E-3 -1.0193558E-2
9.731784E-3 6.055405E-4
1.4529623E-3 -4.955919E-4
3.3397244E-3 8.119028E-3
1.0502631E-2 0
8.040051E-4 1.133397E-2
2.0853025E-3 8.958455E-3
-2.2090762E-3 -1.0064988E-3
8.7326276E-4 -1.00573E-2
-1.1072332E-2 -5.552885E-4
9.947018E-3 1.7719556E-4
1.1263553E-2 1.7690407E-4
-1.0504885E-2 1.1277455E-3
4.6639964E-3 5.770966E-4
-2.8483177E-4 1.1818843E-2
-7.2579933E-3 -4.6818992E-4
-6.843913E-4 1.2817118E-2
-1.0232725E-3 6.4140945E-3
-7.5383806E-3 -2.8767441E-3
-1.10312225E-2 -9.558783E-4
1.291117E-2 6.342304E-4
-1.1150495E-2 -1.3588765E-3
9.839643E-3 2.5305422E-3
8.201903E-3 1.8054537E-3
9.910402E-3 1.4781032E-3
1.2275133E-2 6.285183E-4
1.1194136E-2 7.5864437E-4
-8.474897E-3 1.0121494E-3
7.0988684E-4 5.994638E-3
1.2347792E-2 2.9859328E-4
-5.082915E-3 -4.6803723E-3
5.884544E-3 -1.537296E-3
-1.269773E-2 -8.296803E-4
-1.2675891E-2 -5.7299325E-4
-1.2292028E-2 -9.906904E-4
1.2393842E-2 1.0165215E-3
2.977873E-3 -6.3579194E-3
1.7116938E-3 -4.175235E-3
-8.029766E-3 -2.8922625E-3
-1.2758117E-2 -5.0911226E-4
-1.7010331E-3 1.0689505E-2
-1.2027645E-2 2.3525466E-4
-1.290799E-2 -6.198086E-4
3.6411171E-3 6.564425E-3
3.2125192E-3 -3.1764735E-3
-8.436022E-3 -2.3548135E-3
-1.0346265E-2 -5.037961E-4
1.2864146E-2 6.5859896E-4
-1.0430221E-2 -1.9583304E-3
-8.841258E-3 1.3931906E-3
6.61486E-3 1.7807143E-3
1.035334E-2 1.7525799E-3
9.495466E-3 -1.3637774E-3
-1.2256834E-2 -9.0235757E-4
-1.0238299E-2 -1.8994439E-3
7.984469E-3 1.3365183E-3
-1.2878754E-2 -6.055706E-4
9.005147E-3 -2.5414412E-3
8.586111E-3 -2.360971E-3
7.145063E-3 1.6210694E-3
-9.623168E-3 -4.875481E-4
1.2770311E-2 6.704383E-4
-1.1783336E-2 -1.328551E-3
1.2582095E-2 8.5667893E-4
7.393221E-3 3.7881427E-3
9.659021E-3 -1.8147891E-3
-3.0336385E-3 7.5685246E-5
-1.0330178E-2 1.048865E-3
-8.535123E-3 -1.9865232E-3
-6.4118295E-3 -2.1074736E-3
1.0006016E-2 4.7511602E-4
7.936323E-3 1.4087255E-3
-8.2616037E-4 1.240492E-2
-1.084239E-2 -2.2942341E-4
2.3138858E-3 -3.8064166E-3
-1.0528281E-2 1.0633563E-4
-1.2356866E-2 -3.4484803E-4
-1.2876428E-2 -6.496726E-4
-7.3944815E-3 -2.3170202E-3
1.2660803E-2 6.0662767E-4
-1.1512907E-2 5.3521193E-4
1.26155885E-2 8.14132E-4
9.39658E-3 -1.2399124E-3
5.124627E-3 -5.3980555E-3
1.2668424E-2 5.087366E-4
7.826086E-3 4.125567E-3
-1.4557096E-3 4.8091228E-4
-8.538297E-3 -1.8349243E-3
1.1883816E-2 2.4702487E-4
5.684102E-3 3.187947E-3
1.2598094E-2 3.8912162E-4
1.0614437E-2 -1.604876E-3
-8.031325E-3 -3.2290984E-3
1.21423E-2 1.2100227E-3
-1.2414573E-2 -9.8120756E-5
-6.2853396E-3 -2.892179E-4
1.2898333E-2 6.0341053E-4
-3.3402964E-3 8.389546E-3
-4.923905E-3 -2.79967E-3
-1.2559763E-3 1.0083694E-2
-1.1438517E-2 -7.3837425E-4
-1.2843789E-2 -6.455733E-4
1.1297248E-2 1.3790437E-3
1.1352379E-2 1.434613E-3
8.556805E-3 5.7356403E-4
-1.1908606E-2 -9.898558E-4
9.586843E-3 -4.515154E-4
-1.620915E-3 -3.3236132E-4
9.127885E-3 3.4808486E-3
8.651556E-3 1.6344391E-3
1.4284777E-3 8.586937E-3
-9.017768E-3 -2.4200752E-3
8.438942E-3 3.1510396E-3
-2.5484804E-3 3.524795E-3
-1.2510541E-2 -3.2454703E-4
1.0131949E-2 1.5689197E-3
4.9283644E-3 5.95673E-3
1.0679343E-2 -9.895387E-4
5.767303E-4 -1.2822067E-2
-6.47143E-4 -9.610584E-3
1.0615985E-2 5.966849E-4
-1.10938335E-2 5.363048E-4
1.3984669E-3 -1.0455752E-2
-4.235924E-4 -1.6059108E-3
9.0173585E-3 -2.9825475E-3
8.040051E-4 -1.133397E-2
1.22926645E-2 0
9.827201E-3 -1.5645716E-3
-1.2552794E-3 2.3068865E-3
-1.0786539E-2 -1.7123E-3
-1.4468597E-3 1.1906258E-2
9.526933E-4 -1.0720814E-2
1.0531627E-3 -1.2141582E-2
-8.541521E-3 -4.354678E-4
3.6551165E-3 1.0549704E-3
-1.73197E-3 9.412157E-3
-5.742713E-3 -1.2980624E-3
-2.1784494E-3 1.0159361E-2
-1.6344066E-3 4.99742E-3
-5.6603113E-3 -3.2592344E-3
-8.697097E-3 -2.1681825E-3
1.0240933E-2 2.1503193E-3
-8.741155E-3 -2.5055348E-3
7.5440877E-3 3.2753656E-3
6.327105E-3 2.4872571E-3
7.7346046E-3 2.4430142E-3
9.733189E-3 2.0648006E-3
8.85244E-3 2.0312418E-3
-6.903963E-3 -2.6950947E-4
-1.9546926E-4 4.882682E-3
9.833269E-3 1.8102943E-3
-3.4677628E-3 -4.388596E-3
4.899979E-3 -4.8000383E-4
-1.0045426E-2 -2.2794034E-3
-1.0060637E-2 -2.0714186E-3
-9.700601E-3 -2.356484E-3
9.778707E-3 2.390093E-3
3.1898355E-3 -4.703737E-3
1.8998005E-3 -3.119975E-3
-6.051168E-3 -3.3341823E-3
-1.0134502E-2 -2.0308157E-3
-2.720394E-3 8.329075E-3
-9.645277E-3 -1.3427695E-3
-1.0240226E-2 -2.1383858E-3
2.0753418E-3 5.711268E-3
2.9724955E-3 -2.1305084E-3
-6.444348E-3 -2.9562332E-3
-8.207057E-3 -1.7195921E-3
1.0200239E-2 2.1638158E-3
-8.089047E-3 -2.8930858E-3
-7.245342E-3 -1.1520385E-5
5.0615147E-3 2.2654857E-3
8.053773E-3 2.718816E-3
7.7645956E-3 1.1829977E-4
-9.683707E-3 -2.2813883E-3
-7.9431115E-3 -2.8215826E-3
6.212965E-3 2.084699E-3
-1.0218668E-2 -2.123282E-3
7.5225066E-3 -8.855735E-4
7.1645444E-3 -7.9463253E-4
5.5056973E-3 2.2053423E-3
-7.631056E-3 -1.6145699E-3
1.0123718E-2 2.1613378E-3
-9.250931E-3 -2.5618374E-3
9.949546E-3 2.2862693E-3
5.4282653E-3 3.9693643E-3
7.952752E-3 -2.2143865E-4
-2.4348332E-3 -3.2560632E-4
-8.391814E-3 -4.7629175E-4
-6.5704477E-3 -2.674422E-3
-4.857616E-3 -2.500868E-3
7.9387E-3 1.653359E-3
6.1652865E-3 2.1362961E-3
-2.2393214E-3 9.81179E-3
-8.638598E-3 -1.5633947E-3
2.3342727E-3 -2.7484829E-3
-8.430223E-3 -1.2549977E-3
-9.834635E-3 -1.8484272E-3
-1.0211194E-2 -2.1582427E-3
-5.616513E-3 -2.7934557E-3
1.00442935E-2 2.0963869E-3
-9.271954E-3 -1.0374583E-3
9.9817375E-3 2.2565187E-3
7.669777E-3 2.0473609E-4
4.78386E-3 -3.6631546E-3
1.0062845E-2 2.0190992E-3
5.7313675E-3 4.2942073E-3
-1.2249558E-3 1.9918063E-4
-6.5922807E-3 -2.5536325E-3
9.468912E-3 1.7100151E-3
4.138325E-3 3.272015E-3
1.0021846E-2 1.9145232E-3
8.689828E-3 6.797622E-5
-6.0095424E-3 -3.6036596E-3
9.552985E-3 2.5127693E-3
-9.91217E-3 -1.6585288E-3
-4.987917E-3 -1.0311896E-3
1.0234594E-2 2.1240474E-3
-3.7381484E-3 6.2817633E-3
-3.5800142E-3 -2.8648565E-3
-2.2874933E-3 7.901412E-3
-9.050387E-3 -2.0461418E-3
-1.0185623E-2 -2.1508113E-3
8.855908E-3 2.540335E-3
8.89291E-3 2.5917764E-3
6.767618E-3 1.5476109E-3
-9.394185E-3 -2.3070164E-3
7.7215363E-3 8.5922517E-4
-1.2535163E-3 -4.7200656E-4
6.85413E-3 3.944485E-3
6.7083407E-3 2.4077727E-3
4.9058548E-5 7.04652E-3
-6.9011105E-3 -3.0824488E-3
6.345341E-3 3.593137E-3
-2.485972E-3 2.4934858E-3
-9.960072E-3 -1.8517566E-3
7.90016E-3 2.5438135E-3
3.1817593E-3 5.3892923E-3
8.663397E-3 5.681601E-4
2.093011E-3 -1.0177021E-2
7.0585526E-4 -7.7654147E-3
8.410858E-3 1.8281803E-3
-8.937072E-3 -9.832468E-4
2.4487602E-3 -8.180714E-3
-1.3423989E-4 -1.3377367E-3
7.588412E-3 -1.2366556E-3
2.0853025E-3 -8.958455E-3
9.827201E-3 1.5645716E-3
8.055354E-3 0
-1.2971291E-3 1.6844404E-3
-8.405213E-3 -2.7417513E-3
-2.6720632E-3 9.334141E-3
2.1261284E-3 -8.4493505E-3
2.3872787E-3 -9.5723765E-3
1.2843553E-3 1.8562241E-3
-3.6796925E-4 -9.341935E-4
2.2470532E-3 -1.1534421E-3
6.5329607E-4 1.4098714E-3
2.4751946E-3 -1.1803993E-3
1.308185E-3 -4.6295155E-4
2.2992994E-4 1.708442E-3
9.4708224E-4 2.1677702E-3
-1.1994167E-3 -2.4877226E-3
8.836338E-4 2.2313057E-3
-5.298956E-4 -2.1049527E-3
-4.987286E-4 -1.723565E-3
-7.3462573E-4 -2.0107606E-3
-1.1355391E-3 -2.3677782E-3
-1.000732E-3 -2.1782022E-3
1.0553675E-3 1.4870735E-3
1.0524847E-3 -7.453692E-4
-1.2048739E-3 -2.347723E-3
-3.5928813E-4 1.4318199E-3
-8.894014E-4 -9.4733224E-4
1.1409423E-3 2.4676262E-3
1.1868831E-3 2.4373159E-3
1.069298E-3 2.4079327E-3
-1.0748472E-3 -2.429677E-3
-1.4972393E-3 9.040772E-5
-9.5833145E-4 1.0513619E-4
2.7719617E-4 1.802242E-3
1.2072677E-3 2.4462235E-3
2.1797344E-3 -7.723489E-4
1.2723653E-3 2.2331283E-3
1.2017987E-3 2.4856532E-3
8.600871E-4 -1.3536391E-3
-9.241587E-4 -2.785039E-4
4.1954112E-4 1.8235992E-3
9.6197653E-4 1.9930636E-3
-1.1900418E-3 -2.4813863E-3
6.975866E-4 2.1573508E-3
1.1642864E-3 1.5169156E-3
-3.4130857E-4 -1.4232085E-3
-7.283476E-4 -2.1219125E-3
-1.2255718E-3 -1.6426902E-3
1.0822808E-3 2.3923074E-3
6.890389E-4 2.1153204E-3
-5.6452723E-4 -1.6348746E-3
1.201485E-3 2.4787127E-3
-1.3965071E-3 -1.4304167E-3
-1.3198489E-3 -1.3702076E-3
-4.2541052E-4 -1.506406E-3
8.911858E-4 1.8557056E-3
-1.178238E-3 -2.464986E-3
9.539481E-4 2.3469706E-3
-1.1240673E-3 -2.4486827E-3
-4.4070508E-5 -1.7742695E-3
-1.3269118E-3 -1.627328E-3
3.2398684E-4 5.61575E-4
1.2517117E-3 1.831493E-3
4.987757E-4 1.8045887E-3
2.592551E-4 1.4184744E-3
-9.326137E-4 -1.9262825E-3
-5.460602E-4 -1.6332131E-3
2.4123169E-3 -1.1117021E-3
1.0641286E-3 2.0581505E-3
-9.5061114E-4 -4.5535737E-5
1.0950628E-3 1.9649172E-3
1.1971201E-3 2.3541495E-3
1.1929712E-3 2.4827796E-3
3.2027546E-4 1.6242805E-3
-1.1790305E-3 -2.4379191E-3
1.2760935E-3 2.1059003E-3
-1.1354722E-3 -2.4506233E-3
-1.1922289E-3 -1.6367813E-3
-1.536326E-3 -4.1047772E-4
-1.1981792E-3 -2.4293533E-3
-2.495067E-5 -1.889959E-3
2.3890121E-4 2.2407487E-4
5.275493E-4 1.7897036E-3
-1.1671719E-3 -2.2553857E-3
1.7823253E-5 -1.3922402E-3
-1.2134447E-3 -2.40394E-3
-1.3850821E-3 -1.8280604E-3
2.1414351E-4 1.8369309E-3
-1.0128475E-3 -2.4022313E-3
1.2493146E-3 2.339784E-3
5.875589E-4 1.2090636E-3
-1.2038898E-3 -2.4821663E-3
1.9155109E-3 -2.298558E-4
-2.2586213E-5 1.2099295E-3
2.0205984E-3 -7.9400674E-4
1.0294912E-3 2.221994E-3
1.1904074E-3 2.4762359E-3
-8.9483504E-4 -2.2609055E-3
-8.9003646E-4 -2.2769263E-3
-7.661508E-4 -1.6643715E-3
1.0303009E-3 2.3358925E-3
-1.0637045E-3 -1.7529951E-3
1.0314945E-4 3.381263E-4
-2.7887555E-4 -2.0684232E-3
-5.7673873E-4 -1.7904852E-3
1.4655853E-3 -1.1449382E-3
4.6669942E-4 1.9394361E-3
-2.7041655E-4 -1.9054547E-3
9.2171686E-4 1.1831867E-4
1.2166224E-3 2.3809152E-3
-7.402064E-4 -2.0616108E-3
6.145961E-4 -1.5331532E-3
-1.2762337E-3 -1.9030765E-3
-2.4651298E-3 1.2011088E-3
-1.7374738E-3 1.102841E-3
-9.7208726E-4 -2.0531656E-3
1.2335046E-3 2.0271442E-3
-2.1049709E-3 8.052596E-4
-2.5811547E-4 2.4348231E-4
-1.4805336E-3 -1.3876643E-3
-2.2090762E-3 1.0064988E-3
-1.2552794E-3 -2.3068865E-3
-1.2971291E-3 -1.6844404E-3
5.6110305E-4 0
7.801433E-4 2.1990947E-3
2.3821197E-3 -9.442981E-4
-2.1091925E-3 9.159822E-4
-2.3860785E-3 1.0422111E-3
9.060713E-3 -2.452844E-3
-4.1729393E-3 1.4327941E-4
-1.3963655E-3 -1.0410447E-2
6.433944E-3 -6.0017215E-4
-1.1848154E-3 -1.1342067E-2
4.450776E-6 -5.770761E-3
7.015475E-3 1.4742244E-3
9.812801E-3 -6.97826E-4
-1.1417609E-2 1.2419313E-3
9.973595E-3 -3.6081797E-4
-8.986559E-3 -8.4988656E-4
-7.448477E-3 -4.41766E-4
-8.90205E-3 8.346114E-5
-1.0858704E-2 1.158347E-3
-9.92828E-3 8.935877E-4
7.2955466E-3 -2.0686449E-3
-1.4579296E-3 -5.161278E-3
-1.0876505E-2 1.4579701E-3
5.1120943E-3 3.3989006E-3
-4.9494193E-3 2.1686275E-3
1.1257546E-2 -1.0406973E-3
1.1202627E-2 -1.2628926E-3
1.092398E-2 -8.4290275E-4
-1.10169165E-2 8.3441875E-4
-1.7273944E-3 5.993734E-3
-9.203861E-4 3.9021054E-3
7.4488167E-3 1.4193938E-3
1.126588E-2 -1.3304E-3
3.6297354E-6 -9.616747E-3
1.052122E-2 -1.8818149E-3
1.141281E-2 -1.2541431E-3
-4.1093873E-3 -5.252949E-3
-2.376449E-3 3.2347708E-3
7.7304337E-3 8.912055E-4
9.148793E-3 -9.991078E-4
-1.137974E-2 1.2139981E-3
9.425073E-3 2.6551913E-4
7.563943E-3 -2.4540317E-3
-6.052436E-3 -6.4112415E-4
-9.32895E-3 -9.568711E-5
-8.142093E-3 2.51935E-3
1.0880792E-2 -9.1551046E-4
9.248462E-3 2.4058176E-4
-7.1923626E-3 -6.0572835E-5
1.1385173E-2 -1.2625644E-3
-7.547808E-3 3.4844251E-3
-7.2052507E-3 3.2676968E-3
-6.49544E-3 -4.2718442E-4
8.5120285E-3 -9.126414E-4
-1.1299053E-2 1.190539E-3
1.0524675E-2 -4.755795E-4
-1.1159839E-2 1.0008995E-3
-7.0150536E-3 -2.2941765E-3
-8.222787E-3 2.937885E-3
2.6514078E-3 -4.889812E-4
8.9184E-3 -2.3592922E-3
7.7660927E-3 5.542343E-4
5.919797E-3 9.5612893E-4
-8.846237E-3 9.768786E-4
-7.1601747E-3 -1.3063916E-4
-1.0029989E-3 -1.100012E-2
9.545914E-3 -1.3089709E-3
-1.5001707E-3 3.6623569E-3
9.223521E-3 -1.5598385E-3
1.0890911E-2 -1.4186463E-3
1.1389275E-2 -1.2235416E-3
6.8112407E-3 1.0031234E-3
-1.1194073E-2 1.2312775E-3
1.0027768E-2 -2.0733208E-3
-1.1183302E-2 1.0428989E-3
-8.072576E-3 2.396887E-3
-3.744827E-3 5.450506E-3
-1.1187124E-2 1.3182362E-3
-7.4418853E-3 -2.5299632E-3
1.2103643E-3 -6.247622E-4
7.747761E-3 4.2076755E-4
-1.0462193E-2 1.4385908E-3
-5.4317364E-3 -2.0055885E-3
-1.110875E-2 1.4133994E-3
-9.090382E-3 2.8867752E-3
7.4971044E-3 1.714743E-3
-1.0823147E-2 6.295871E-4
1.0907179E-2 -1.6431826E-3
5.555532E-3 -6.217306E-4
-1.1402052E-2 1.2671871E-3
1.7624182E-3 -7.826924E-3
4.710595E-3 1.7707758E-3
-3.0251127E-4 -9.023167E-3
1.0139897E-2 -9.454147E-4
1.1360063E-2 -1.2225923E-3
-1.0105177E-2 3.6356386E-4
-1.0161295E-2 3.2248255E-4
-7.5883E-3 6.886256E-4
1.05874175E-2 -7.9022563E-4
-8.349347E-3 1.7315886E-3
1.4686129E-3 6.585517E-5
-8.494379E-3 -1.782904E-3
-7.819216E-3 -2.2907053E-4
-2.4495695E-3 -7.335867E-3
8.249993E-3 8.674372E-4
-7.843906E-3 -1.5894694E-3
1.7452503E-3 -3.4479185E-3
1.1022929E-2 -1.457866E-3
-9.109102E-3 3.4632503E-5
-5.1542697E-3 -4.5404043E-3
-9.233048E-3 2.3558715E-3
1.2799748E-3 1.1331414E-2
1.9065547E-3 8.34293E-3
-9.398405E-3 9.5517E-4
9.659888E-3 -2.015905E-3
2.293047E-4 9.369489E-3
5.9538736E-4 1.3501471E-3
-7.497079E-3 3.8731874E-3
8.7326276E-4 1.00573E-2
-1.0786539E-2 1.7123E-3
-8.405213E-3 2.7417513E-3
7.801433E-4 -2.1990947E-3
9.703461E-3 0
-3.8888823E-4 -1.0649015E-2
6.5738295E-4 9.53998E-3
7.6712796E-4 1.0800668E-2
2.328732E-3 1.0041939E-2
9.998847E-6 -4.5853136E-3
1.1480855E-2 -1.1152118E-3
4.0080096E-4 7.084953E-3
1.249478E-2 -8.4571046E-4
6.332915E-3 2.3616108E-4
-1.8990412E-3 7.6400153E-3
3.7255525E-4 1.0796976E-2
-9.0536446E-4 -1.2579971E-2
-3.7362531E-6 1.0959933E-2
1.2928606E-3 -9.828193E-3
7.83328E-4 -8.156589E-3
2.65176E-4 -9.772854E-3
-8.3603436E-4 -1.1963255E-2
-5.827648E-4 -1.0931553E-2
1.977838E-3 8.089367E-3
5.7226485E-3 -1.3931477E-3
-1.1641417E-3 -1.1994799E-2
-3.934985E-3 5.474024E-3
-2.1815898E-3 -5.518628E-3
6.9093646E-4 1.2396245E-2
9.369844E-4 1.234488E-2
4.8723587E-4 1.20222485E-2
-4.7420044E-4 -1.2123901E-2
-6.508564E-3 -2.1359327E-3
-4.2454596E-3 -1.1664589E-3
-1.8562352E-3 8.117782E-3
1.008535E-3 1.2417003E-2
1.05537055E-2 3.8939645E-4
1.643527E-3 1.1621879E-2
9.1895886E-4 1.2575193E-2
5.9295157E-3 -4.2993026E-3
-3.4547416E-3 -2.7376628E-3
-1.2878637E-3 8.448008E-3
7.298073E-4 1.0080339E-2
-8.76227E-4 -1.2537293E-2
-6.691239E-4 1.0332857E-2
2.3900226E-3 8.399363E-3
9.461636E-4 -6.616521E-3
4.7889006E-4 -1.0234175E-2
-2.4385352E-3 -9.036468E-3
5.6864956E-4 1.1977762E-2
-6.346784E-4 1.0140035E-2
3.5472572E-4 -7.890795E-3
9.293082E-4 1.2545201E-2
-3.5214694E-3 -8.42295E-3
-3.2973508E-3 -8.038327E-3
7.291308E-4 -7.1112677E-3
6.6043495E-4 9.37806E-3
-8.5371593E-4 -1.2447803E-2
1.00121826E-4 1.1569312E-2
-6.5117603E-4 -1.2287423E-2
2.7988767E-3 -7.6066926E-3
-2.8946204E-3 -9.141797E-3
4.303688E-4 2.929371E-3
2.2317683E-3 9.882008E-3
-9.1948576E-4 8.500648E-3
-1.2865482E-3 6.4583328E-3
-7.175374E-4 -9.747409E-3
4.3032976E-4 -7.852662E-3
1.21122245E-2 -6.598812E-4
1.0539495E-3 1.0528575E-2
-3.959113E-3 -1.7931319E-3
1.3421832E-3 1.0184821E-2
1.1204084E-3 1.2009031E-2
8.863185E-4 1.2548138E-2
-1.3738485E-3 7.4347598E-3
-9.0263155E-4 -1.2334226E-2
1.8734694E-3 1.1088016E-2
-6.963282E-4 -1.2314856E-2
-2.306925E-3 -8.955269E-3
-5.831548E-3 -4.3281834E-3
-9.983423E-4 -1.2330085E-2
3.074746E-3 -8.065666E-3
6.371339E-4 1.3533471E-3
-7.7227864E-4 8.485879E-3
-1.1594781E-3 -1.1539336E-2
2.4187125E-3 -5.8806534E-3
-1.10592E-3 -1.22478865E-2
-2.8037592E-3 -1.0091889E-2
-2.1822995E-3 8.158937E-3
-2.5717454E-4 -1.190304E-2
1.3661726E-3 1.2035883E-2
4.5966462E-4 6.1218077E-3
-9.337051E-4 -1.256391E-2
8.5189855E-3 2.247839E-3
-2.1321168E-3 5.098651E-3
9.914554E-3 2.96343E-5
6.3116127E-4 1.1165868E-2
8.864474E-4 1.2516043E-2
5.9967065E-6 -1.1104447E-2
5.3330437E-5 -1.1164386E-2
-4.5161054E-4 -8.35534E-3
4.429147E-4 1.1650778E-2
-1.5657042E-3 -9.232347E-3
-1.311304E-4 1.6090827E-3
2.2970706E-3 -9.25066E-3
5.6476454E-4 -8.57198E-3
8.148883E-3 -2.394267E-3
-1.282602E-3 9.0191495E-3
2.0587174E-3 -8.544554E-3
3.7139554E-3 2.0534992E-3
1.1581588E-3 1.2155485E-2
3.2706078E-4 -9.998126E-3
5.1894127E-3 -5.4745604E-3
-2.215404E-3 -1.0227179E-2
-1.2486902E-2 9.5056987E-4
-9.232316E-3 1.757977E-3
-6.71584E-4 -1.0352513E-2
1.8252027E-3 1.0681989E-2
-1.0291688E-2 -1.2385455E-4
-1.5055736E-3 5.992947E-4
-3.9501474E-3 -8.382859E-3
-1.1072332E-2 5.552885E-4
-1.4468597E-3 -1.1906258E-2
-2.6720632E-3 -9.334141E-3
2.3821197E-3 9.442981E-4
-3.8888823E-4 1.0649015E-2
1.1702294E-2 0
-1.049595E-2 3.39105E-4
-1.1883884E-2 4.090193E-4
-1.7976805E-3 -9.074234E-3
-1.4183979E-4 4.1123414E-3
-1.03296535E-2 6.675607E-4
-1.5417837E-4 -6.366206E-3
-1.1231246E-2 3.9645995E-4
-5.6732353E-3 -3.9532912E-4
1.9246663E-3 -6.797405E-3
-2.127916E-5 -9.694752E-3
4.4749578E-4 1.1309384E-2
3.2094456E-4 -9.830006E-3
-1.4443826E-3 8.777577E-3
-9.3893684E-4 7.2930576E-3
-5.210345E-4 8.7577235E-3
4.0318398E-4 1.0754234E-2
2.0591877E-4 9.821548E-3
-1.5395391E-3 -7.3127784E-3
-5.1730922E-3 1.0837043E-3
6.9655344E-4 1.0792034E-2
3.6879668E-3 -4.795701E-3
1.7967812E-3 5.012951E-3
-2.604961E-4 -1.1138385E-2
-4.826686E-4 -1.1099445E-2
-8.8632136E-5 -1.079704E-2
7.399448E-5 1.0887836E-2
5.775727E-3 2.1043504E-3
3.7740099E-3 1.1692365E-3
1.9001173E-3 -7.2271605E-3
-5.447534E-4 -1.1166206E-2
-9.454479E-3 -6.55077E-4
-1.1373264E-3 -1.0471449E-2
-4.5982705E-4 -1.1305493E-2
-5.4428484E-3 3.6842804E-3
3.0192742E-3 2.5555578E-3
1.3999061E-3 -7.539816E-3
-3.624694E-4 -9.062343E-3
4.2259868E-4 1.1270262E-2
8.995686E-4 -9.248292E-3
-1.9002503E-3 -7.602761E-3
-1.0403582E-3 5.9070317E-3
-7.260857E-4 9.165295E-3
1.9253001E-3 8.175597E-3
-1.629421E-4 -1.0759498E-2
8.6308626E-4 -9.076347E-3
-5.4681505E-4 7.067084E-3
-4.6997835E-4 -1.1278894E-2
2.914377E-3 7.6567037E-3
2.7245076E-3 7.3052356E-3
-8.6003565E-4 6.3570654E-3
-3.2059857E-4 -8.430449E-3
4.0500128E-4 1.1189343E-2
2.4545108E-4 -1.0379576E-2
2.2798787E-4 1.1039629E-2
-2.7307754E-3 6.7414423E-3
2.3313167E-3 8.283284E-3
-3.011173E-4 -2.6398643E-3
-1.7153464E-3 -8.927981E-3
1.0710283E-3 -7.5977035E-3
1.3410703E-3 -5.755286E-3
3.6111232E-4 8.763378E-3
-6.135206E-4 7.0306915E-3
-1.0882743E-2 2.4087245E-4
-6.4020837E-4 -9.473765E-3
3.4990222E-3 1.7230107E-3
-9.086905E-4 -9.1738E-3
-6.569158E-4 -1.0803532E-2
-4.31336E-4 -1.1280282E-2
1.4476657E-3 -6.628528E-3
4.521659E-4 1.1088894E-2
-1.3590362E-3 -9.999284E-3
2.6769054E-4 1.1065542E-2
1.8096098E-3 8.098954E-3
5.1049753E-3 4.050992E-3
5.381298E-4 1.1087952E-2
-2.9915061E-3 7.1451077E-3
-5.322374E-4 -1.2322982E-3
9.385683E-4 -7.5887227E-3
7.055688E-4 1.0383389E-2
-2.339784E-3 5.20435E-3
6.3699944E-4 1.1017346E-2
2.2222907E-3 9.1328E-3
2.1937615E-3 -7.254625E-3
-1.1425901E-4 1.0683455E-2
-8.7656686E-4 -1.0834738E-2
-2.3488367E-4 -5.504054E-3
4.7338E-4 1.1295801E-2
-7.5756586E-3 -2.262978E-3
2.0600718E-3 -4.5112665E-3
-8.891641E-3 -3.138798E-4
-2.425365E-4 -1.003311E-2
-4.3238164E-4 -1.1251498E-2
-3.2715916E-4 9.959558E-3
-3.7135062E-4 1.0011946E-2
1.6293763E-4 7.5071063E-3
-5.964426E-5 -1.0462578E-2
1.1367699E-3 8.32599E-3
1.6424013E-4 -1.4394085E-3
-2.3283362E-3 8.23048E-3
-7.5494143E-4 7.671961E-3
-7.3782247E-3 1.9113153E-3
1.4117373E-3 -8.052233E-3
-2.0940932E-3 7.604071E-3
-3.2715923E-3 -1.9494336E-3
-6.865314E-4 -1.0935983E-2
-5.830677E-4 8.95798E-3
-4.8130956E-3 4.7598314E-3
1.6906667E-3 9.237096E-3
1.122722E-2 -4.9073796E-4
8.3315335E-3 -1.3092229E-3
3.0236127E-4 9.304773E-3
-1.3275107E-3 -9.6337125E-3
9.227168E-3 4.0931566E-4
1.3677358E-3 -4.9388775E-4
3.3000263E-3 7.6331673E-3
9.947018E-3 -1.7719556E-4
9.526933E-4 1.0720814E-2
2.1261284E-3 8.4493505E-3
-2.1091925E-3 -9.159822E-4
6.5738295E-4 -9.53998E-3
-1.049595E-2 -3.39105E-4
9.423788E-3 0
1.067067E-2 -2.2488259E-5
-2.0138815E-3 -1.0279156E-2
-1.704203E-4 4.656116E-3
-1.1697986E-2 7.312372E-4
-1.5938636E-4 -7.2089015E-3
-1.2718225E-2 4.221153E-4
-6.4229304E-3 -4.6117397E-4
2.195544E-3 -7.692193E-3
-9.59473E-7 -1.0977537E-2
4.7971742E-4 1.28068235E-2
3.8686686E-4 -1.1129871E-2
-1.6564379E-3 9.935511E-3
-1.0805735E-3 8.255779E-3
-6.108721E-4 9.9152345E-3
4.308668E-4 1.2178114E-2
2.0972699E-4 1.11215515E-2
-1.7257887E-3 -8.284022E-3
-5.860142E-3 1.2147473E-3
7.629624E-4 1.2221615E-2
4.187374E-3 -5.42143E-3
2.0225549E-3 5.6805136E-3
-2.683833E-4 -1.2612752E-2
-5.2004453E-4 -1.2569189E-2
-7.459374E-5 -1.2225832E-2
5.7803372E-5 1.2328606E-2
6.534905E-3 2.3965647E-3
4.2705676E-3 1.3329468E-3
2.1687723E-3 -8.178868E-3
-5.901849E-4 -1.2644932E-2
-1.070386E-2 -7.64313E-4
-1.2628206E-3 -1.1859664E-2
-4.9368956E-4 -1.2802447E-2
-6.1717955E-3 4.1587674E-3
3.412663E-3 2.9008945E-3
1.6031237E-3 -8.534086E-3
-3.8880287E-4 -1.0262267E-2
4.5161947E-4 1.2762465E-2
1.0406615E-3 -1.0469809E-2
-2.1335343E-3 -8.613235E-3
-1.1921069E-3 6.686121E-3
-8.4402686E-4 1.0376244E-2
2.1605317E-3 9.261922E-3
-1.5882571E-4 -1.21835E-2
9.989423E-4 -1.0275198E-2
-6.360298E-4 8.00084E-3
-5.052475E-4 -1.2772351E-2
3.2817135E-3 8.676734E-3
3.0675605E-3 8.278309E-3
-9.88999E-4 7.1961307E-3
-3.4290022E-4 -9.5466655E-3
4.3188647E-4 1.2670797E-2
3.0269625E-4 -1.1752336E-2
2.3180949E-4 1.25008505E-2
-3.1081778E-3 7.6269014E-3
2.6200123E-3 9.384827E-3
-3.346592E-4 -2.9898696E-3
-1.9210024E-3 -1.0113355E-2
1.230869E-3 -8.6004175E-3
1.5322443E-3 -6.513581E-3
3.8797958E-4 9.923742E-3
-7.1147404E-4 7.959475E-3
-1.2323238E-2 2.467732E-4
-7.0230785E-4 -1.0728789E-2
3.9578737E-3 1.9593358E-3
-1.0070296E-3 -1.0389774E-2
-7.180534E-4 -1.223454E-2
-4.6148823E-4 -1.2773831E-2
1.6550274E-3 -7.5021083E-3
4.8553117E-4 1.25571685E-2
-1.5149916E-3 -1.1325555E-2
2.7670347E-4 1.2530287E-2
2.0297167E-3 9.174863E-3
5.7707587E-3 4.59917E-3
5.828713E-4 1.2556309E-2
-3.4043698E-3 8.083355E-3
-5.997183E-4 -1.3966165E-3
1.0808618E-3 -8.590564E-3
7.7414594E-4 1.1758923E-2
-2.6617856E-3 5.8873664E-3
6.9499144E-4 1.2476595E-2
2.4945335E-3 1.0346484E-2
2.501335E-3 -8.209266E-3
-1.5487074E-4 1.2096734E-2
-9.666923E-4 -1.2270398E-2
-2.5282745E-4 -6.2328684E-3
5.09059E-4 1.2791504E-2
-8.572611E-3 -2.580476E-3
2.34341E-3 -5.103247E-3
-1.0067365E-2 -3.7662854E-4
-2.5068468E-4 -1.1361194E-2
-4.6274124E-4 -1.2741242E-2
-3.9421293E-4 1.1276549E-2
-4.443763E-4 1.1335763E-2
1.66582E-4 8.500778E-3
-4.2568892E-5 -1.1847048E-2
1.2673102E-3 9.430333E-3
1.8940597E-4 -1.6294682E-3
-2.6560447E-3 9.313919E-3
-8.7313674E-4 8.685254E-3
-8.359015E-3 2.1465987E-3
1.6177427E-3 -9.114274E-3
-2.3893134E-3 8.605186E-3
-3.699812E-3 -2.2151747E-3
-7.51271E-4 -1.2384586E-2
-6.8159134E-4 1.0141839E-2
-5.4612863E-3 5.3781304E-3
1.8923199E-3 1.0463311E-2
1.27138905E-2 -5.2887696E-4
9.437023E-3 -1.462567E-3
3.2016315E-4 1.0536631E-2
-1.4801676E-3 -1.0911539E-2
1.0447059E-2 4.8549214E-4
1.5498826E-3 -5.559713E-4
3.7184446E-3 8.651004E-3
1.1263553E-2 -1.7690407E-4
1.0531627E-3 1.2141582E-2
2.3872787E-3 9.5723765E-3
-2.3860785E-3 -1.0422111E-3
7.6712796E-4 -1.0800668E-2
-1.1883884E-2 -4.090193E-4
1.067067E-2 2.2488259E-5
1.2082585E-2 0
